link,year,disambiguation,length,pageviews,revisions,title,score
Chiang_Kai-shek,1887,False,741859,51629,8592,蔣中正,0.8713091797503235
Adolf_Hitler,1889,False,582037,36696,1665,阿道夫·希特勒,0.799787651689576
Franklin_D._Roosevelt,1882,False,753654,10992,901,富兰克林·德拉诺·罗斯福,0.7455162656876398
Pablo_Picasso,1881,False,156416,16486,488,巴勃羅·畢卡索,0.7062689010524056
Harry_S._Truman,1884,False,526991,4086,775,哈里·S·杜鲁门,0.7037306579110315
Charlie_Chaplin,1889,False,256755,9645,511,查理·卓别林,0.702342518222329
Benito_Mussolini,1883,False,269828,4988,758,贝尼托·墨索里尼,0.6997993839885398
Franz_Kafka,1883,False,401097,6552,509,弗朗茨·卡夫卡,0.6977992326575184
Isoroku_Yamamoto,1884,False,192838,9643,373,山本五十六,0.6842078489057412
Douglas_MacArthur,1880,False,180818,8828,371,道格拉斯·麦克阿瑟,0.6807296716146077
Helen_Keller,1880,False,88917,11569,408,海倫·凱勒,0.6803965631865021
Tojo_Hideki,1884,False,187458,8030,366,东条英机,0.6781953185386549
George_Patton,1885,False,365903,3430,519,乔治·巴顿,0.6776483870885224
Srinivasa_Aaiyangar_Ramanujan,1887,False,125160,13544,242,斯里尼瓦瑟·拉马努金,0.665382180445514
Niels_Bohr,1885,False,531975,2358,452,尼尔斯·玻尔,0.6645863555582121
Ludwig_Wittgenstein,1889,False,444029,3325,329,路德维希·维特根斯坦,0.6601457067869088
Mustafa_Kemal_Atatürk,1881,False,212803,2538,403,穆斯塔法·凯末尔·阿塔图尔克,0.6508114758084671
Le_Corbusier,1887,False,137181,4572,280,勒·柯布西耶,0.6467376581457372
Zhou_Zuoren,1885,False,225297,3236,278,周作人,0.6434089530659148
Martin_Heidegger,1889,False,232163,3553,249,马丁·海德格尔,0.6415395750856886
John_Maynard_Keynes,1883,False,188842,3592,230,约翰·梅纳德·凯恩斯,0.6355455818982506
Erwin_Schrödinger,1887,False,177601,2218,286,埃尔温·薛定谔,0.6302316486237902
George_Marshall,1880,False,311525,2322,224,乔治·卡特莱特·马歇尔,0.6278611759182593
Erich_von_Manstein,1887,False,139620,2321,254,埃里希·冯·曼施坦因,0.6234525832629373
Heinz_Guderian,1888,False,119547,2305,267,海因茨·古德里安,0.623298235541099
Hong_Yi,1880,False,64595,4979,195,李叔同,0.6214652243379187
Chester_W._Nimitz,1885,False,336925,1976,196,切斯特·威廉·尼米兹,0.6177356934453643
Igor_Stravinsky,1882,False,147567,1850,249,伊戈尔·费奥多罗维奇·斯特拉文斯基,0.6164382293755415
Virginia_Woolf,1882,False,89952,2645,191,弗吉尼亚·吴尔夫,0.6087817018523591
Pope_John_XXIII,1881,False,355853,1225,217,若望二十三世,0.60756006014848
Jawaharlal_Nehru,1889,False,136780,1127,297,贾瓦哈拉尔·尼赫鲁,0.6064238015247889
Marc_Chagall,1887,False,78761,3415,158,馬克·夏卡爾,0.6048696062389206
Chūichi_Nagumo,1887,False,83389,2634,170,南云忠一,0.6023051560372669
T._E._Lawrence,1888,False,112192,2149,170,托马斯·爱德华·劳伦斯,0.6005568846502646
Albert_Kesselring,1885,False,361938,747,277,阿爾貝特·凱塞林,0.6000166202602251
Coco_Chanel,1883,False,75004,3693,138,可可·香奈尔,0.5995199298278258
James_Joyce,1882,False,130886,1542,185,詹姆斯·乔伊斯,0.5965586262448558
Tomoyuki_Yamashita,1885,False,88651,1979,166,山下奉文,0.5941324528812733
Joseph_Stilwell,1883,False,96819,1359,180,约瑟夫·史迪威,0.5878053994516015
Clement_Attlee,1883,False,310516,786,201,克莱门特·艾德礼,0.5875124199613797
Bernard_Montgomery,1887,False,155078,1117,181,第一代阿拉曼的蒙哥馬利子爵伯納德·蒙哥馬利,0.587505650632698
T._S._Eliot,1888,False,90864,1643,160,T·S·艾略特,0.5874528975708982
Mohammad_Mosaddegh,1882,False,219118,668,246,穆罕默德·摩萨台,0.5859479130986852
Mohammad_Mosaddegh,1882,False,219118,668,246,穆罕默德·摩萨台,0.5859479130986852
Ludwig_Mies_van_der_Rohe,1886,False,71328,1784,143,路德維希·密斯·凡德羅,0.5815738126025148
Alexander_Fleming,1881,False,130166,1417,135,亚历山大·弗莱明,0.579605245112648
Eleanor_Roosevelt,1884,False,279236,1290,120,埃莉诺·罗斯福,0.5793532858178296
Georgia_O'Keeffe,1887,False,92129,1378,142,喬治亞·歐姬芙,0.5770628331884917
David_Ben-Gurion,1886,False,286965,736,161,戴维·本-古里安,0.5750043650308077
Stefan_Zweig,1881,False,87750,1756,117,斯蒂芬·茨威格,0.5741471397331394
Jun'ichirō_Tanizaki,1886,False,67584,2388,105,谷崎潤一郎,0.5735224213776595
Marcel_Duchamp,1887,False,76626,1982,108,馬塞爾·杜象,0.5717484560770878
Prince_Yasuhiko_Asaka,1887,False,83805,995,155,朝香宮鳩彥王,0.5699294551750134
Bronisław_Malinowski,1884,False,97367,667,205,布罗尼斯拉夫·马林诺夫斯基,0.569793573916046
Joseph_Alois_Schumpeter,1883,False,79980,1826,107,约瑟夫·熊彼特,0.5696453094855248
Dale_Carnegie,1888,False,56403,2925,91,戴尔·卡耐基,0.5686279364042586
Amedeo_Modigliani,1884,False,65491,1702,108,阿梅代奥·莫迪利亚尼,0.5658006110310242
Karl_I_of_Austria,1887,False,81694,1020,137,卡爾一世 (奧匈帝國),0.5649879062412775
Prince_Naruhiko_Higashikuni,1887,False,79401,1148,124,東久邇宮稔彥王,0.5636839625502217
António_de_Oliveira_Salazar,1889,False,211949,516,170,安東尼奧·德·奧利維拉·薩拉查,0.5614619093855268
Ma_Zhanshan,1885,False,106470,1500,93,马占山,0.5605569494456092
Wilhelm_Keitel,1882,False,93394,1267,104,威廉·凱特爾,0.5600414202383374
Béla_Bartók,1881,False,68426,1164,118,巴托克·贝拉,0.5600181682281089
Fedor_von_Bock,1880,False,314604,534,145,费多尔·冯·博克,0.55991455468094
Arthur_Rubinstein,1887,False,60963,1136,122,阿图尔·鲁宾斯坦,0.5594509405421596
Edwin_Hubble,1889,False,120941,771,127,愛德文·哈勃,0.5572206247384424
Max_Born,1882,False,148864,601,146,马克斯·玻恩,0.5570933869459971
Husband_E._Kimmel,1882,False,108013,626,146,哈斯本·金梅爾,0.5550956790563779
Raymond_A._Spruance,1886,False,105213,620,148,雷蒙德·斯普魯恩斯,0.5550475985171145
Shigeyoshi_Inoue,1889,False,78654,941,115,井上成美,0.5541710373080965
Kahlil_Gibran,1883,False,64515,1180,102,纪伯伦·哈利勒·纪伯伦,0.5528062668374855
Ezra_Pound,1885,False,66386,656,146,艾兹拉·庞德,0.5511887555596302
Arnold_J._Toynbee,1889,False,64479,810,125,阿诺尔德·J·汤因比,0.5510209752999838
Ichirō_Hatoyama,1883,False,306779,661,100,鳩山一郎,0.5502467421885134
Walter_Gropius,1883,False,81021,1163,91,沃爾特·格羅佩斯,0.5494123652210654
Nikolai_Ivanovich_Bukharin,1888,False,152532,605,119,尼古拉·伊万诺维奇·布哈林,0.5487104364288808
Masaharu_Homma,1887,False,61060,843,114,本間雅晴,0.5475100184086736
Jisaburō_Ozawa,1886,False,75985,1030,91,小澤治三郎,0.5452734194550918
Karl_Barth,1886,False,181144,658,99,卡爾·巴特,0.5447234667003181
Paul_Tillich,1886,False,162352,583,109,保羅·田立克,0.5441328508279066
Kuniaki_Koiso,1880,False,99860,688,107,小矶国昭,0.5437766600038412
Ty_Cobb,1886,False,78623,755,101,泰·柯布,0.5414555428159331
Kliment_Voroshilov,1881,False,94683,497,126,克利缅特·叶夫列莫维奇·伏罗希洛夫,0.5395469125297071
D._H._Lawrence,1885,False,72900,659,106,大卫·赫伯特·劳伦斯,0.5385916195133055
Raymond_Chandler,1888,False,82631,654,97,雷蒙·錢德勒,0.5356525953116927
Sergey_Kirov,1886,False,74701,451,132,谢尔盖·米罗诺维奇·基洛夫,0.5355371505902686
Alexander_Kerensky,1881,False,73207,477,119,亚历山大·费奥多罗维奇·克伦斯基,0.5329935113796178
Franz_Marc,1880,False,64694,436,130,弗兰茨·马尔克,0.5321608642980189
Alfred_Wegener,1880,False,123701,622,85,阿尔弗雷德·魏格纳,0.5319296430686982
Karl_Jaspers,1883,False,114088,541,95,卡尔·雅斯贝尔斯,0.5318953524275365
John_Foster_Dulles,1888,False,103951,639,85,约翰·福斯特·杜勒斯,0.5310540959406265
Wilhelm_Furtwängler,1886,False,64685,505,111,威廉·富特文格勒,0.5306395656128974
Henry_H._Arnold,1886,False,60703,919,76,亨利·阿诺德,0.530571616501152
Arthur_Percival,1887,False,251233,504,83,白思華,0.5304456272501904
Edward_Rydz-Śmigły,1886,False,97622,291,159,爱德华·雷兹-希米格维,0.529028549789605
Fernando_Pessoa,1888,False,82759,475,105,費爾南多·佩索阿,0.5287881838356311
Wilhelmina_of_the_Netherlands,1880,False,67076,459,113,威廉明娜 (荷兰),0.5285574175787491
Georgi_Dimitrov,1882,False,89868,546,92,格奥尔基·季米特洛夫,0.5283240666354784
Arthur_Eddington,1882,False,155834,530,83,亚瑟·爱丁顿,0.5278435282269476
Ludwig_von_Mises,1881,False,153766,683,70,路德維希·馮·米塞斯,0.5271357198051964
Ernst_Röhm,1887,False,73579,631,83,恩斯特·罗姆,0.5259867326551388
Vajiravudh,1880,False,58017,1251,59,拉玛六世,0.524728351653638
Gustaf_VI_Adolf_of_Sweden,1882,False,81509,448,100,古斯塔夫六世·阿道夫,0.5245139918503607
Eugene_O'Neill,1888,False,82076,614,80,尤金·奥尼尔,0.5245050620584648
Hermann_Hoth,1885,False,89405,420,102,赫爾曼·霍特,0.5240956007027293
Heitor_Villa-Lobos,1887,False,74822,317,128,海托爾·維拉-羅伯斯,0.5214473142309144
Chandrasekhara_Venkata_Raman,1888,False,80388,366,110,钱德拉塞卡拉·拉曼,0.5213725978552651
George_Mallory,1886,False,53415,993,62,乔治·马洛里,0.5206453124766045
Edward_Hopper,1882,False,55695,1010,60,愛德華·霍普,0.5197666494432175
İsmet_İnönü,1884,False,103302,227,157,伊斯麦特·伊诺努,0.5189233725860232
Walton_Walker,1889,False,65240,661,71,沃爾頓·沃克,0.5184961963009629
Robert_H._Goddard,1882,False,129079,496,73,罗伯特·戈达德,0.5177197675113034
Crown_Prince_Wilhelm_of_Germany,1882,False,59995,694,69,威廉皇储 (德国),0.5176050400722194
Guillaume_Apollinaire,1880,False,76851,677,66,纪尧姆·阿波利奈尔,0.517162408769728
Paul_Ehrenfest,1880,False,144468,327,96,保罗·埃伦费斯特,0.517087885613246
Carl_von_Ossietzky,1889,False,80260,667,64,卡爾·馮·奧西茨基,0.5155736021992919
Henry_Moseley,1887,False,76735,393,91,亨利·莫塞莱,0.5152935897782422
Diego_Rivera,1886,False,72919,533,71,迭戈·里韋拉,0.5131584577140995
Georges_Braque,1882,False,70011,880,54,喬治·布拉克,0.5127284960053031
Semyon_Budyonny,1883,False,112897,479,69,谢苗·米哈伊洛维奇·布琼尼,0.5125974588651157
Gunichi_Mikawa,1888,False,53602,360,98,三川軍一,0.5117922885497367
Alvin_Cullum_York,1887,False,82210,295,101,艾文·約克,0.5101907896144687
Getúlio_Vargas,1882,False,75463,388,82,热图利奥·瓦加斯,0.510045695869964
Władysław_Sikorski,1881,False,167343,252,99,瓦迪斯瓦夫·西科尔斯基,0.5097997428586335
Frank_Jack_Fletcher,1885,False,109949,363,79,法蘭克·傑克·弗萊徹,0.5096354600740008
Sylvanus_Morley,1883,False,118837,168,166,西尔韦纳斯·莫利,0.5089760111149164
Günther_von_Kluge,1882,False,77277,585,61,君特·馮·克魯格,0.5088906427166571
Anna_Akhmatova,1889,False,64295,389,81,安娜·安德烈耶芙娜·艾哈迈托娃,0.5079959371111364
John_Logie_Baird,1888,False,101747,340,79,约翰·罗杰·贝尔德,0.5066610205304668
Paul_Hausser,1880,False,87151,393,73,保羅·豪塞爾,0.5064915878126393
Vidkun_Quisling,1887,False,272735,253,83,维德孔·吉斯林,0.5063591733956496
Anton_Webern,1883,False,52272,369,83,安东·韦伯恩,0.5052203713570119
Emmy_Noether,1882,False,86523,427,65,埃米·诺特,0.5035380760080066
Ernst_Thälmann,1886,False,81123,257,95,恩斯特·台尔曼,0.5023852293281468
Sarah_Knauss,1880,False,54420,395,72,莎拉·勞絲,0.5014428047123749
Gabriela_Mistral,1889,False,77959,272,88,加夫列拉·米斯特拉爾,0.5009369367299191
Jean_Cocteau,1889,False,110077,612,48,让·谷克多,0.5005058560233641
Holland_Smith,1882,False,70645,272,89,霍蘭·史密斯,0.5004818207936464
Alban_Berg,1885,False,57828,380,69,阿尔班·贝尔格,0.49880512567470237
Tôn_Đức_Thắng,1888,False,69403,454,59,孙德胜,0.4985588740465012
George_Enescu,1881,False,55934,255,95,乔治·埃内斯库,0.49852018381985397
Mitsuru_Ushijima,1887,False,53433,918,43,牛島滿,0.49802381661520845
Ion_Antonescu,1882,False,65505,372,67,扬·安东内斯库,0.497934659469669
Vasily_Blyukher,1889,False,81843,349,67,瓦西里·康斯坦丁诺维奇·布柳赫尔,0.4979180296048478
Alexander_I_of_Yugoslavia,1888,False,64418,268,85,亞歷山大一世 (南斯拉夫),0.4971233216610743
Giorgio_de_Chirico,1888,False,48707,621,51,乔治·德·基里科,0.4965857917659701
Kurt_von_Schleicher,1882,False,76866,407,59,庫爾特·馮·施萊謝爾,0.49612761327874977
Henry_A._Wallace,1888,False,155872,312,62,亨利·阿加德·华莱士,0.4959776228326775
Pierre_Laval,1883,False,96660,308,68,皮埃尔·赖伐尔,0.49587832586839836
Irving_Langmuir,1881,False,92241,260,72,歐文·朗繆爾,0.4920998299865937
Takeo_Kurita,1889,False,51924,764,42,栗田健男,0.4917854735314769
Mineichi_Koga,1885,False,49832,440,56,古贺峰一,0.491784641527552
Edvard_Beneš,1884,False,68267,301,67,爱德华·贝奈斯,0.49126000247890056
Felix_Yusupov,1887,False,52987,628,44,費利克斯·尤蘇波夫,0.48957245147207945
Hermann_Staudinger,1881,False,85137,208,80,赫尔曼·施陶丁格,0.4876430188544952
Zoltán_Kodály,1882,False,52157,295,64,柯达伊·佐尔丹,0.4859476671481888
Igor_Sikorsky,1889,False,60211,256,69,伊戈尔·伊万诺维奇·西科尔斯基,0.48580763433992635
Édouard_Daladier,1884,False,85288,290,58,爱德华·达拉第,0.48518939995783666
Julian_Huxley,1887,False,65981,275,63,朱利安·赫胥黎,0.4850142102231405
Walther_von_Brauchitsch,1881,False,63199,514,43,瓦尔特·冯·布劳希奇,0.4844863831444118
Peter_Debye,1884,False,68438,287,59,彼得·德拜,0.4837199527094396
Karen_Blixen,1885,False,54272,271,63,凱倫·白烈森,0.4827199587098076
James_Franck,1882,False,79516,240,64,詹姆斯·弗兰克,0.4826227941894173
Theodor_Heuss,1884,False,69445,293,56,特奥多尔·豪斯,0.48203867015062785
Robert_Schuman,1886,False,117248,172,78,罗贝尔·舒曼,0.4817973370674971
Faisal_I_of_Iraq,1885,False,54108,307,55,费萨尔一世 (伊拉克),0.48044094331871323
Rodolfo_Graziani,1882,False,152808,243,53,魯道夫·格拉齊亞尼,0.4794609225138825
Ernst_Busch_(field_marshal),1885,False,67586,276,55,恩斯特·布施,0.4789381116674257
Johannes_Blaskowitz,1883,False,90289,216,61,約翰內斯·布拉斯科維茨,0.47771859398462885
Ludwig_Beck,1880,False,75147,674,33,路德维希·贝克,0.4774019744589345
Paul_Ludwig_Ewald_von_Kleist,1881,False,65874,300,50,埃瓦尔德·冯·克莱斯特,0.47676205732791854
"Thomas_Midgley,_Jr.",1889,False,62262,410,42,托马斯·米基利,0.47664587187450697
Otto_Klemperer,1885,False,54759,225,62,奥托·克伦佩勒,0.47559475366803683
Otto_Stern,1888,False,68000,182,71,奥托·施特恩,0.4755517002939825
Bess_Truman,1885,False,117384,218,55,貝絲·杜魯門,0.47535461179971533
Selman_Waksman,1888,False,77745,198,63,赛尔曼·A·瓦克斯曼,0.4747203738041756
Éamon_de_Valera,1882,False,70613,195,64,埃蒙·德·瓦莱拉,0.4740308814020258
François_Darlan,1881,False,85130,244,52,弗朗索瓦·达尔朗,0.4740206699758652
Gustav_Ludwig_Hertz,1887,False,80207,223,56,古斯塔夫·赫兹,0.4739267538089629
Sarvepalli_Radhakrishnan,1888,False,65625,213,60,萨瓦帕利·拉达克里希南,0.4737579650051095
Georg_von_Küchler,1881,False,69399,219,57,格奧爾格·馮·屈希勒,0.4728869183888683
F._W._Murnau,1888,False,60102,284,48,F·W·穆瑙,0.47214906342642393
Otto_Heinrich_Warburg,1883,False,65990,306,45,奥托·海因里希·瓦尔堡,0.47203132477170123
Robert_Robinson_(organic_chemist),1886,False,79485,154,73,羅伯特·魯賓遜,0.4714422377037179
Morihei_Ueshiba,1883,False,55070,479,36,植芝盛平,0.4711693601020046
Cecil_B._DeMille,1881,False,101590,266,45,塞西爾·德米爾,0.4710970631186361
Aleksei_Nikolaevich_Tolstoi,1883,False,72480,201,57,阿列克谢·尼古拉耶维奇·托尔斯泰,0.47018115553110074
José_Ortega_y_Gasset,1883,False,58862,251,50,何塞·奧特嘉·伊·加塞特,0.4699428723649898
John_Edensor_Littlewood,1885,False,52440,461,36,約翰·恩瑟·李特爾伍德,0.46970535316472617
Hans_Kelsen,1881,False,48184,289,47,汉斯·凯尔森,0.46969033041275704
"Joseph_P._Kennedy,_Sr.",1888,False,48030,536,34,老约瑟夫·P·肯尼迪,0.46952612618156675
Ben_Chifley,1885,False,109936,121,83,班·奇夫利,0.46892660414730475
Shmuel_Yosef_Agnon,1888,False,73575,151,71,萨缪尔·约瑟夫·阿格农,0.46887615321352927
Karl_von_Frisch,1886,False,94236,160,63,卡尔·冯·弗里希,0.4681654402904736
Maximilian_von_Weichs,1881,False,92616,248,45,马克西米连·冯·魏克斯,0.4680526663681415
Roland_Garros_(aviator),1888,False,52422,190,60,罗兰·加洛斯,0.4676562132658535
Willis_Augustus_Lee,1888,False,58205,165,66,威利斯·李,0.467364482113333
Clinton_Davisson,1881,False,79831,164,62,克林顿·戴维孙,0.46710532870335797
P._G._Wodehouse,1881,False,109747,223,46,佩勒姆·格伦维尔·伍德豪斯,0.46690272531776794
Percy_Williams_Bridgman,1882,False,68247,180,58,珀西·布里奇曼,0.4664166025745346
John_Curtin,1885,False,66885,196,53,約翰·柯廷,0.4652575539570726
Sinclair_Lewis,1885,False,65454,237,46,辛克莱·刘易斯,0.46482954615445027
Leopold_Stokowski,1882,False,47759,191,57,利奥波德·斯托科夫斯基,0.46475377084973984
A._A._Milne,1882,False,83716,457,31,艾倫·亞歷山大·米恩,0.4644509480244428
Douglas_Fairbanks,1883,False,127836,230,42,范朋克,0.46444826649377435
Celâl_Bayar,1883,False,60731,174,58,杰拉勒·拜亚尔,0.4641782159830542
Juan_Ramón_Jiménez,1881,False,80057,210,47,胡安·拉蒙·希梅内斯,0.46342916267857603
Pio_of_Pietrelcina,1887,False,261851,449,27,畢奧神父,0.4633422853310152
Manne_Siegbahn,1886,False,61441,144,67,曼内·西格巴恩,0.4630998934570048
Gerrit_Rietveld,1888,False,58243,419,33,赫里特·里特费尔德,0.46293251113596245
"Archibald_Wavell,_1st_Earl_Wavell",1883,False,60871,186,53,阿奇博尔德·韦维尔，第一代韦维尔伯爵,0.4625904331445329
François_Mauriac,1885,False,69070,212,47,弗朗索瓦·莫里亚克,0.4625635381115538
Robert_L._Eichelberger,1886,False,65569,126,71,羅伯特·艾克爾伯格,0.46051026449734533
Daniel_Jones_(phonetician),1881,False,46618,978,24,DJ音標,0.4604192835637313
John_Reed_(journalist),1887,False,91636,164,52,約翰·里德 (記者),0.4603660921869538
Robert_Moses,1888,False,64423,220,44,羅伯·摩斯,0.4599989347210134
Victor_Francis_Hess,1883,False,65756,139,63,维克托·赫斯,0.45970774274358644
William_Boeing,1881,False,41348,244,44,威廉·爱德华·波音,0.45962325652272196
Thomas_C._Kinkaid,1888,False,52503,373,33,托马斯·金凯德,0.45887451496512977
Katherine_Mansfield,1888,False,53100,239,42,凱瑟琳·曼斯菲爾德,0.45877639910451795
Anna_Pavlova,1881,False,52383,307,36,安娜·巴甫洛娃,0.4582237678479092
Giovanni_Messe,1883,False,72524,247,38,喬瓦尼·梅塞,0.4571642505756389
Seán_O'Casey,1880,False,95591,149,51,肖恩·奥凯西,0.45616604481339423
María_Capovilla,1889,False,52424,179,48,瑪利亞·以瑟·笛·卡波維亞,0.4553870590529733
Wacław_Sierpiński,1882,False,78162,124,61,瓦茨瓦夫·谢尔宾斯基,0.4551158033999279
Harlow_Shapley,1885,False,93844,162,46,哈罗·沙普利,0.45436865166752033
Alice_Paul,1885,False,51572,210,42,艾麗斯·保爾,0.45429220781738716
Rudolf_Bultmann,1884,False,58699,196,43,魯道夫·布爾特曼,0.4541977842001151
Franz_Halder,1884,False,96030,379,28,弗朗茲·哈爾德,0.4541733775990622
Jean_de_Lattre_de_Tassigny,1889,False,74798,333,30,让·德·拉特尔·德·塔西尼,0.4529534832307439
John_Barrymore,1882,False,47720,212,41,約翰·巴里摩,0.45275282330706496
Johnny_Torrio,1882,False,47127,327,31,強尼·托里奧,0.4506781110359546
Gaston_Bachelard,1884,False,44982,261,35,加斯东·巴舍拉,0.45055930321182247
Roger_Martin_du_Gard,1881,False,62483,162,45,羅傑·馬丁·杜·加爾,0.4502078003243032
Sigrid_Undset,1882,False,67368,127,54,西格丽德·温塞特,0.449793345420681
Juan_Gris,1887,False,64558,271,32,胡安·格里斯,0.44963527023628896
Alcide_De_Gasperi,1881,False,137155,254,30,阿爾契德·加斯貝利,0.44946690562829184
Percy_Grainger,1882,False,52375,149,48,帕西·葛人傑,0.4487290726516126
Otto_Fritz_Meyerhof,1884,False,63093,155,45,奧托·邁爾霍夫,0.4486826263937652
Louis_St._Laurent,1882,False,50155,170,43,路易·圣洛朗,0.4480012998054015
Rajendra_Prasad,1884,False,56048,137,50,拉金德拉·普拉萨德,0.44794455725901156
Oskar_Kokoschka,1886,False,67456,285,30,奥斯卡·柯克西卡,0.4477296617483955
Sessue_Hayakawa,1889,False,43812,317,30,早川雪洲,0.4472969921404093
Victor_Fleming,1889,False,60836,149,45,维克托·弗莱明,0.4469535151926883
Claude_Auchinleck,1884,False,52101,184,39,克劳德·奥金莱克,0.4462467674190634
Karol_Szymanowski,1882,False,49384,193,38,卡罗尔·席曼诺夫斯基,0.4461015935928625
Aritomo_Gotō,1888,False,43064,177,41,五藤存知,0.44584869035353597
Marie-Louise_Meilleur,1880,False,44858,175,41,瑪麗-露易絲·梅拉紐爾,0.44579606910857966
George_de_Hevesy,1885,False,60879,160,41,乔治·德海韦西,0.4451063467802709
Saint-John_Perse,1887,False,60975,149,43,圣琼·佩斯,0.44484019759519
Oswald_Spengler,1880,False,59976,570,22,奧斯瓦爾德·斯賓格勒,0.4447142406699682
Jonathan_Mayhew_Wainwright_IV,1883,False,58089,208,34,喬納森·溫萊特,0.4440204505002953
Shoeless_Joe_Jackson,1887,False,45740,190,37,無鞋喬·傑克森,0.44360826181521607
Kosaku_Yamada,1886,False,43622,150,44,山田耕筰,0.44349747390615624
Max_Wertheimer,1880,False,46268,175,38,马科斯·韦特墨,0.44230353828471636
Robert_Musil,1880,False,49906,210,33,罗伯特·穆齐尔,0.44153183351430364
Princess_Alice_of_Battenberg,1885,False,49145,308,27,爱丽丝公主 (巴滕贝格),0.4411736978698447
Paul_Wittgenstein,1887,False,41623,163,39,保罗·维特根斯坦,0.4403084282930658
Risto_Ryti,1889,False,52083,206,32,里斯托·吕蒂,0.4395990796394268
Leopold_Ružička,1887,False,61043,111,49,拉沃斯拉夫·鲁日奇卡,0.4394896595789186
Harold_Rainsford_Stark,1880,False,83857,112,46,哈洛德·史塔克,0.43941145122641867
Hugh_Dowding,1882,False,48674,142,41,休·道丁，第一代道丁男爵,0.4390921792872535
Eurico_Gaspar_Dutra,1883,False,59383,100,54,尤里科·加斯帕尔·杜特拉,0.43908218199631693
Inge_Lehmann,1888,False,73259,139,39,英厄·莱曼,0.43901534512944107
Frans_Eemil_Sillanpää,1888,False,72250,123,43,弗蘭斯·埃米爾·西蘭帕,0.43895317527239436
Walter_Johnson,1887,False,55565,355,24,華特·強森,0.43854455016937544
Frits_Zernike,1888,False,63959,132,41,弗里茨·泽尔尼克,0.4385033453199755
Alexander_Vandegrift,1887,False,59314,215,30,亞歷山大·范德格里夫特,0.43835878323665545
James_F._Byrnes,1882,False,83163,148,36,詹姆斯·弗朗西斯·伯恩斯,0.43822139776235264
Yitzhak_Ben-Zvi,1884,False,58447,116,46,伊扎克·本-兹维,0.4381508711098874
Hitoshi_Imamura,1886,False,60795,376,23,今村均,0.4379160584189823
Edward_Weston,1886,False,39659,188,34,爱德华·韦斯顿,0.4377551070310189
Lesley_J._McNair,1883,False,51148,215,30,萊斯利·麥克奈爾,0.43722946390754464
José_Raúl_Capablanca,1888,False,71530,128,40,何塞·劳尔·卡帕布兰卡,0.4370127304656573
Jacob_L._Devers,1887,False,50564,113,47,雅各布·L·德弗斯,0.4369596501120377
Edgar_Adrian,1889,False,77287,109,45,埃德加·阿德里安，第一代阿德里安男爵,0.4367687111387285
Avery_Brundage,1887,False,55526,147,37,艾弗里·布伦戴奇,0.43638996035735345
Jozef_Tiso,1887,False,86734,162,32,約瑟夫·蒂索,0.4355315050586675
Norman_Haworth,1883,False,58677,136,38,沃尔特·霍沃思,0.435330830087651
Hans_Geiger,1882,False,55039,148,36,漢斯·蓋革,0.4352037923886123
Paul_Karrer,1889,False,55859,124,41,保罗·卡勒,0.43515648912861415
Friedrich_Bergius,1884,False,61381,139,37,弗里德里希·贝吉乌斯,0.43515197066890393
Archibald_Hill,1886,False,63769,114,43,阿奇博爾德·希爾,0.4351074279063621
Archibald_Hill,1886,False,63769,114,43,阿奇博爾德·希爾,0.4351074279063621
Hugo_Sperrle,1885,False,66811,212,28,胡戈·施佩勒,0.43489347506864195
Ramón_Grau,1882,False,48912,163,34,拉蒙·格劳·圣马丁,0.43472148876866756
Hans_Fischer,1881,False,75429,123,39,汉斯·费歇尔,0.43469918576597705
Sisavang_Vong,1885,False,39301,210,30,西萨旺·冯,0.4344443930697715
Bernardo_Houssay,1887,False,57621,127,38,贝尔纳多·奥赛,0.43270034304514055
Heinrich_Barkhausen,1881,False,43426,173,32,海因里希·巴克豪森,0.43261714203027957
Werner_von_Fritsch,1880,False,69335,208,27,威爾納·馮·弗里奇,0.4324810131828277
Max_Steiner,1888,False,72841,192,28,馬克斯·史坦納,0.432465322892363
Georg_Trakl,1887,False,59760,175,29,格奥尔格·特拉克尔,0.4300870573321676
Heinrich_Brüning,1885,False,86296,250,23,海因里希·布吕宁,0.4296110689190366
Vincent_Auriol,1884,False,63565,202,26,樊尚·奥里奥尔,0.4287792567953957
René_Guénon,1886,False,64000,112,38,勒內·蓋農,0.428763454820274
Gabriel_Marcel,1889,False,59261,220,25,加布里埃爾·馬塞爾,0.42848008232435775
Theodore_Roosevelt_Jr.,1887,False,41368,162,31,小西奧多·羅斯福,0.428433549083984
John_Franklin_Enders,1887,False,76586,149,30,约翰·富兰克林·恩德斯,0.4283992939042055
Theodor_Svedberg,1884,False,61518,94,44,特奥多尔·斯韦德贝里,0.4281717245504146
Alexander_Patch,1889,False,48662,118,37,亞歷山大·帕奇,0.4274710581229183
Manuel_Azaña,1880,False,81053,182,26,曼努埃尔·阿萨尼亚,0.42728335867594
Rube_Goldberg,1883,False,42987,172,29,魯布·戈德堡,0.42709212646716715
Melanie_Klein,1882,False,123714,245,21,梅兰妮·克莱因,0.42551271560153925
Luo_Meizhen,1885,False,36164,181,28,羅美珍,0.4254393642789404
Carl_Vinson,1883,False,34387,172,29,卡尔·文森,0.4253671267848285
Ernest_Ansermet,1883,False,43812,113,37,恩奈斯特·安塞美,0.42508055217023755
Edward_Calvin_Kendall,1886,False,60254,121,33,爱德华·卡尔文·肯德尔,0.42438553525227396
Wilhelm_Backhaus,1884,False,56906,139,30,威廉·巴克豪斯,0.42396919934446037
Artur_Schnabel,1882,False,77570,165,26,阿圖爾·施納貝爾,0.423908669091269
Jim_Thorpe,1887,False,55192,188,25,吉姆·索普,0.4233215494912658
Beno_Gutenberg,1889,False,63741,148,28,賓諾·古登堡,0.4231810535911273
Boris_Shaposhnikov,1882,False,73547,240,21,鮑里斯·米哈伊洛維奇·沙波什尼科夫,0.42158210820562286
Alphonse_Juin,1888,False,46344,170,26,阿尔方斯·朱安,0.42124041082519903
Arnold_Bax,1883,False,50594,110,34,阿诺德·巴克斯,0.4211246427445572
Walter_Rudolf_Hess,1881,False,55005,115,32,瓦尔特·鲁道夫·赫斯,0.4203785265488451
Edgard_Varèse,1883,False,43232,230,22,埃德加·瓦雷兹,0.4196453865028435
Jean_Decoux,1884,False,40603,117,32,让德句,0.41880977512750794
B._C._Forbes,1880,False,44860,147,27,伯蒂·查爾斯·福布斯,0.41849102616853934
Marcus_Garvey,1887,False,59681,222,21,馬科斯·加維,0.4180289586159443
Nadia_Boulanger,1887,False,50378,197,22,娜迪亚·布朗热,0.4164038310235268
Fritz_Reiner,1888,False,42732,102,33,弗里兹·莱纳,0.4156805723671653
Louis_B._Mayer,1885,False,51997,148,25,路易·B·梅耶,0.4154970346356771
Erich_von_Stroheim,1885,False,50516,111,30,艾利·馮·史托洛海姆,0.4152824859682348
George_Minot,1885,False,55312,104,31,喬治·邁諾特,0.415178561257623
Theo_van_Doesburg,1883,False,75996,397,16,特奥·凡·杜斯伯格,0.41513505621361146
Hugo_Black,1886,False,54898,115,28,休戈·布萊克,0.4135792821375717
Sveinn_Björnsson,1881,False,47445,58,54,斯温·布扬松,0.41311697304531625
Henry_Maitland_Wilson,1881,False,49118,85,35,亨利·梅特蘭·威爾遜，第一代威爾遜男爵,0.4123971354616484
Olave_Baden-Powell,1889,False,79939,115,26,奧莉芙·貝登堡,0.41211644664345415
Nikos_Kazantzakis,1883,False,74304,215,19,尼可斯·卡赞扎基斯,0.41211155077484435
William_Hood_Simpson,1888,False,51122,79,36,威廉·胡得·辛普森,0.4109930502466228
Friedrich_Olbricht,1888,False,56109,215,19,弗里德里希·奥尔布里希特,0.41027608405456545
Cyril_Burt,1883,False,46495,90,31,西里尔·伯特,0.4085843953823815
Jean_Monnet,1888,False,73506,298,16,让·莫内,0.4083538318572821
James_B._Sumner,1887,False,52837,98,28,詹姆斯·B·萨姆纳,0.4076132781838308
Henri_Fabre,1882,False,39207,122,25,亨利·法布尔,0.40725426215405813
Erle_Stanley_Gardner,1889,False,42547,124,24,厄爾·史丹利·賈德納,0.406129781624405
Walter_H._Schottky,1886,False,56140,149,21,華特·蕭特基,0.4060895874908432
Phraya_Manopakorn_Nititada,1884,False,57856,143,21,披耶·玛奴巴功,0.4050317103538152
Döme_Sztójay,1883,False,42119,75,34,斯托堯伊·德邁,0.40501615057482954
Jaroslav_Hašek,1883,False,59547,152,20,雅洛斯拉夫·哈謝克,0.4041067649918647
Friedrich_Kellner,1885,False,124192,95,24,弗里德里希·克尔纳,0.4036262514339443
Walther_Wever_(general),1887,False,66124,105,24,瓦爾特·韋佛 (將軍),0.4034304592089535
Felix_Frankfurter,1882,False,38242,135,22,费利克斯·弗兰克福特,0.4032081579826018
Antoinette_Perry,1888,False,32569,99,27,安朵涅特·佩里,0.4028097661219397
Herbert_Spencer_Gasser,1888,False,50980,93,25,赫伯特·斯潘塞·加塞,0.3996779311853086
Carlo_Carrà,1881,False,50320,266,15,卡洛·卡拉,0.39854516211267277
Giles_Gilbert_Scott,1880,False,46107,108,22,贾莱斯·吉尔伯特·斯科特,0.3972941031709766
Ernest_Bloch,1880,False,47724,126,20,欧内斯特·布洛赫,0.39698160508097124
Robert_C._Giffen,1886,False,58323,43,50,罗伯特·C·吉芬,0.39694796292008055
Ettore_Bugatti,1881,False,45635,139,19,埃托雷·布加蒂,0.3965854133880974
Antisa_Khvichava,1880,False,42088,82,26,安蒂莎·赫維沙娃,0.39583796679533445
Irving_Berlin,1888,False,56376,145,18,歐文·柏林,0.3958032286770355
Hermann_Broch,1886,False,72686,172,16,赫尔曼·布洛赫,0.39438600883129704
Henri_Coandă,1886,False,37137,80,26,亨利·科安德,0.3940933220967503
John_Boyd_Orr,1880,False,54908,122,19,约翰·博伊德·奥尔,0.39379717790617597
Wallace_Beery,1885,False,139533,109,18,華理士·勃利,0.39221083528407014
Ugo_Cavallero,1880,False,49904,125,18,乌戈·卡瓦莱罗,0.3906498967098488
Max_Brod,1884,False,46037,125,18,马克斯·布洛德,0.3901482147716133
Asta_Nielsen,1881,False,41279,64,28,阿斯泰·妮尔森,0.3896610052193102
Lloyd_Fredendall,1883,False,57215,103,19,勞埃德·弗雷登道爾,0.3886874417867981
"Terry_de_la_Mesa_Allen,_Sr.",1888,False,49393,82,22,泰利·德·拉·梅薩山艾倫,0.3882460712185484
Evelyn_Nesbit,1884,False,48593,110,18,伊芙琳·内斯比特,0.38656952336681893
Warner_Baxter,1889,False,69328,129,16,沃纳·巴克斯特,0.38604921665375813
Emil_Jannings,1884,False,129241,153,14,埃米爾·傑寧斯,0.38501541254528326
Joseph_Bech,1887,False,61929,62,24,约瑟夫·伯克,0.383495865649589
Manuel_Prado_Ugarteche,1889,False,47779,58,26,曼努埃尔·普拉多·乌加特切,0.38311729794058463
W._O._Bentley,1888,False,37569,66,24,W·O·本特利,0.3829475755458934
Pedro_Pablo_Ramírez,1884,False,40981,68,23,佩德罗·帕布洛·拉米雷斯,0.3825144066959845
Joaquín_Turina,1882,False,42013,111,17,华金·图里纳,0.38247663390399483
Seán_T._O'Kelly,1882,False,40137,54,28,斯恩·奧凱利,0.38245651612138154
William_Ronald_Dodds_Fairbairn,1889,False,35369,77,21,罗纳德·费尔贝恩,0.38146183124196176
"Adolf_Friedrich_VI,_Grand_Duke_of_Mecklenburg-Strelitz",1882,False,52063,41,35,阿道夫·弗里德里希六世 (梅克伦堡-施特雷利茨),0.38080666576831557
Joseph_Pilates,1883,False,38375,121,16,約瑟夫·皮拉提斯,0.38068802891188125
Emilio_Mola,1887,False,41248,134,15,埃米利奥·莫拉,0.3798267424734108
Boris_Karloff,1887,False,50768,185,13,鲍里斯·卡洛夫,0.3794081378584839
Sara_Teasdale,1884,False,67685,126,14,莎拉·蒂斯黛尔,0.37629739959767117
"Philip_Noel-Baker,_Baron_Noel-Baker",1889,False,61255,127,14,菲利普·诺埃尔-贝克,0.3759712215603905
Alf_Landon,1887,False,39426,114,15,阿尔夫·兰登,0.3749850258276975
Petru_Groza,1884,False,44554,77,17,彼得鲁·格罗查,0.3711367074295643
Victor_McLaglen,1886,False,67883,101,14,維多·麥克勞倫,0.3699604454874544
Paul_Lukas,1887,False,101327,109,13,保羅·盧卡斯,0.3691499292781794
Roberto_María_Ortiz,1886,False,40336,61,19,罗贝托·玛丽亚·奥尔蒂斯,0.3685081704389668
Walther_Meissner,1882,False,41041,64,18,瓦尔特·迈斯纳,0.36745416310056717
Sax_Rohmer,1883,False,48820,117,13,萨克斯·罗默,0.36735744286903776
Boshirō_Hosogaya,1888,False,41021,190,11,細萱戊子郎,0.3660771197536074
"Lon_Chaney,_Sr.",1883,False,52189,122,12,朗·钱尼,0.36318540588445686
Edna_Ferber,1887,False,38272,53,19,埃德纳·菲伯,0.3629059342963818
René_Cassin,1887,False,51250,156,11,勒内·卡森,0.36274321855188324
Louis_Durey,1888,False,41609,72,15,路易·迪雷,0.36114357235896194
Leevi_Madetoja,1887,False,40817,57,17,莱维·马代托亚,0.3601082540811502
Christy_Mathewson,1880,False,51360,194,10,克里斯提·馬修森,0.3600730396281348
Ante_Pavelić,1889,False,47915,141,11,安特·帕韦利奇,0.3599543793733623
Sōjin_Kamiyama,1884,False,51343,73,14,上山草人,0.3584911586242504
Christian_Mortensen,1882,False,60576,167,10,克里斯蒂安·莫特森,0.35762022211591904
André_François-Poncet,1887,False,48437,61,15,安德烈·弗朗索瓦-龐賽,0.35636235569413854
Alfonso_López_Pumarejo,1886,False,39539,56,16,阿方索·洛佩斯·普雷马霍,0.3559549658215713
Francisco_Canaro,1888,False,66820,85,12,弗朗西斯科·卡纳罗,0.35439861237069004
Stanley_Bruce,1883,False,99725,97,11,斯坦利·布鲁斯,0.353831104383363
H._L._Mencken,1880,False,54234,144,10,H·L·孟肯,0.3536745460091772
Gian_Francesco_Malipiero,1882,False,50036,62,14,吉安·弗朗切斯科·马利皮耶罗,0.3529843459195668
"E._F._L._Wood,_1st_Earl_of_Halifax",1881,False,53223,138,10,E·F·L·伍德，第一代哈利法克斯伯爵,0.35258270512390444
Corrado_Gini,1884,False,41402,61,14,科拉多·吉尼,0.3514684181522218
Alfredo_Casella,1883,False,48488,97,11,阿尔弗雷多·卡塞拉,0.350418228563056
Leonid_Kulik,1883,False,47105,78,12,昂尼德·庫利克,0.3501408550065884
Olaf_Stapledon,1886,False,43373,64,13,奥拉夫·斯塔普雷顿,0.34876167231850536
Percy_C._Mather,1882,False,32935,44,16,马之华,0.3460063572252911
Florence_Lawrence,1886,False,46916,72,11,佛罗伦萨·劳伦斯,0.34185299193800783
Lauri_Kristian_Relander,1883,False,71897,81,10,劳里·克里斯蒂安·雷兰德,0.34038859626352547
Lothrop_Stoddard,1883,False,58540,109,9,洛斯罗普·斯托达德,0.3390140871311117
Jean_Arp,1886,False,71697,298,7,让·阿尔普,0.33703898564020507
Gottfried_Benn,1886,False,45639,99,9,戈特弗里德·贝恩,0.3355359301740366
Paul_Ramadier,1888,False,96346,63,10,保罗·拉马迪埃,0.3343840428429014
Wilhelm_Canaris,1887,False,58882,248,7,威廉·卡纳里斯,0.33316176957686006
Suzanne_Bianchetti,1889,False,36705,35,14,蘇珊娜·比安凱蒂,0.33053996435184896
DeWitt_Wallace,1889,False,31895,43,12,德威特·华莱士,0.32895631516008583
Hugh_Lofting,1886,False,44999,112,8,休·洛夫廷,0.3287633851252932
Agustín_Pío_Barrios,1885,False,40842,114,8,奥古斯丁·巴里奥斯,0.32872105575372573
René_Coty,1882,False,73199,170,7,勒内·科蒂,0.32737781744951405
Kurt_Atterberg,1887,False,39662,70,9,库特·阿特伯格,0.32595263326237517
Anton_Drexler,1884,False,57711,448,6,安東·德萊克斯勒,0.325662351228417
Geraldine_Farrar,1882,False,44165,68,9,格拉汀·法拉,0.32564001436866297
Frigyes_Riesz,1880,False,45960,67,9,弗里杰什·里斯,0.32540680299234204
Georgios_Papandreou,1888,False,45152,67,9,乔治奥斯·帕潘德里欧,0.3253294447300919
Harry_Nyquist,1889,False,71866,146,7,哈里·奈奎斯特,0.3243958480057895
Giovanni_Gronchi,1887,False,63574,81,8,乔瓦尼·格隆基,0.32259652393374294
Othmar_Schoeck,1886,False,39462,59,9,奥特马·舍克,0.32117257347176237
Eleanor_Farjeon,1881,False,63567,72,8,艾莉娜·法瓊,0.31962022342363805
Marcel_Dupré,1886,False,44097,74,8,马塞尔·迪普雷,0.3188251719420174
Roy_Chapman_Andrews,1884,False,59134,100,7,安得思,0.3158447144855111
Ernest_Bevin,1881,False,40439,96,7,欧内斯特·贝文,0.31342930092947446
Earle_Page,1880,False,94334,80,7,厄尔·佩吉,0.31255422594912935
Charles_Tomlinson_Griffes,1884,False,39976,89,7,查尔斯·格里费斯,0.31171913099251247
Max_Beckmann,1884,False,43620,183,6,马克斯·贝克曼,0.31136753707697673
August_Macke,1887,False,51391,125,6,奧古斯特·馬克,0.3053696610082103
Otto_Bauer,1881,False,45862,66,7,奥托·鲍尔,0.30529637603745996
Edith_Evans,1888,False,75002,108,6,伊蒂絲·埃文斯,0.3039716796794867
Refik_Saydam,1881,False,60133,54,7,雷菲克·赛达姆,0.30121135376283004
Conrad_Hilton,1887,False,42776,358,5,康拉德·希尔顿,0.3007525835554359
Giovanni_Battista_Caproni,1886,False,46873,340,5,喬瓦尼·巴蒂斯塔·卡普羅尼,0.3004678911660532
George_David_Birkhoff,1884,False,50881,90,6,乔治·戴维·伯克霍夫,0.2989758465047448
Frank_Lloyd,1886,False,61131,76,6,弗蘭克·洛伊德,0.2960837529015345
Siegfried_Sassoon,1886,False,49398,214,5,西格里夫·萨松,0.2946230451164688
Suzanne_Duchamp,1889,False,33811,41,7,苏珊·杜尚,0.29160205362528496
Aurelio_Mosquera,1883,False,33059,30,8,奥雷利奥·莫斯克拉,0.29130620693681275
Robert_Esnault-Pelterie,1881,False,42178,38,7,罗贝尔·埃斯诺-佩尔特里,0.2902085453869231
Claude_Rains,1889,False,45272,143,5,克勞德·雷恩斯,0.2883964570396639
Al_Jolson,1886,False,43571,112,5,艾爾·喬遜,0.28432622656865886
Álvaro_Obregón,1880,False,41498,92,5,阿尔瓦罗·奥夫雷贡,0.2807743434876836
John_Foulds,1880,False,36313,42,6,约翰·福尔兹,0.2803094423134531
Alain-Fournier,1886,False,46737,81,5,亞蘭·傅尼葉,0.2788496934623528
Harald_Sverdrup_(oceanographer),1888,False,40808,33,5,哈拉爾德·斯維德魯普,0.2590056111097068
Edwin_Fischer,1886,False,38169,77,4,艾德溫·費雪,0.2535214794040958
Rómulo_Gallegos,1884,False,42941,58,4,羅慕洛·加列戈斯,0.2491614447890921
Carlo_Michelstaedter,1887,False,36136,40,4,米可斯泰特,0.24183764823794035
Harukichi_Hyakutake,1888,False,48809,293,3,百武晴吉,0.23135337512090232
Jacques_Maritain,1882,False,70323,135,3,雅克·马里顿,0.22542322562038902
Vincent_Massey,1887,False,33122,54,3,文森特·梅西,0.21356220596709125
Frederick_Handley_Page,1885,False,33708,40,3,弗雷德里·亨德里·佩奇,0.2093964104452135
Roderick_McMahon,1882,False,32287,99,2,傑士·麥馬漢,0.1580118413846018
Watsuji_Tetsuro,1889,False,39754,81,2,和辻哲郎,0.1570984571468234
Zeng_Junchen,1888,False,31963,24,2,曾俊臣,0.14758078311674733
Enoch_L._Johnson,1883,False,98759,0,58,伊努·L·強森,0.12678502724394544
Victoria_Eugenie_of_Battenberg,1887,False,180217,0,40,维多利亚·欧亨尼亚 (巴腾堡),0.12577641914069387
Alan_Goodrich_Kirk,1888,False,82575,0,34,柯尔克,0.12469153897509416
Auguste_Piccard,1884,False,47604,0,27,奥居斯特·皮卡尔,0.12333262858666111
Arnold_Rothstein,1882,False,96714,0,21,阿諾·羅斯汀,0.12246616234383147
Sadayoshi_Tanabe,1888,False,30986,0,19,田邊定義,0.1212318482998613
Patriarch_Athenagoras_I_of_Constantinople,1886,False,111053,0,16,雅典納哥拉,0.12092848664776906
Eva_Morris,1885,False,49068,0,16,伊娃·莫里斯,0.1204789357182535
Joe_Masseria,1886,False,81923,0,15,喬·馬塞里亞,0.12034654461973744
Takeo_Itō,1889,False,36497,0,13,伊東武夫,0.11889010505650988
Hugh_Walpole,1884,False,34739,0,12,休·沃波爾,0.11826410813620596
Smedley_Butler,1881,False,108194,0,9,斯梅德利·巴特勒,0.11642698174593862
Otto_Frank,1889,False,76646,0,7,奧托·弗蘭克,0.1136361194441142
Toyoda_Soemu,1885,False,63925,0,6,丰田副武,0.11165484382806672
Will_Durant,1885,False,47264,0,5,威尔·杜兰特,0.10891340013916606
Roy_Geiger,1885,False,34652,0,5,羅伊·蓋格,0.10875849494707854
Tris_Speaker,1888,False,66481,0,4,特里斯·史畢克,0.10520033731727188
Robert_A._Taft,1889,False,50428,0,3,罗伯特·A·塔夫脱,0.09848160780889277
Georges_Bernanos,1888,False,42047,0,3,喬治·貝爾納諾斯,0.09840917677165335
Angelo_Iachino,1889,False,37868,0,3,安杰洛·亚基诺,0.09836637764790261
"William_Halsey,_Jr.",1882,False,106207,0,0,小威廉·豪爾賽,0.08386916422810131
Richard_C._Tolman,1881,False,61901,0,2,理查德·托勒曼,0.0837284289537498
Ernst_Ludwig_Kirchner,1880,False,49269,0,2,恩斯特·路德維希·克爾希納,0.08366485395037271
Giuseppe_Tellera,1882,False,33339,0,2,朱塞佩·泰莱拉,0.0835498459382565
Eleonore_Baur,1885,,1,1,1,?,0.05448825167540282
David_Powell_(actor),1883,,1,1,1,?,0.05448825167540282
Carlo_Bergamini_(admiral),1888,,1,1,1,?,0.05448825167540282
Elmer_Fowler_Stone,1887,,1,1,1,?,0.05448825167540282
Sylvia_Ashton,1880,,1,1,1,?,0.05448825167540282
Jean_Alexandre_Barré,1880,,1,1,1,?,0.05448825167540282
Marie_Vassilieff,1884,,1,1,1,?,0.05448825167540282
Ants_Piip,1884,,1,1,1,?,0.05448825167540282
Clifton_Webb,1889,,1,1,1,?,0.05448825167540282
Robert_L._Thornton,1880,,1,1,1,?,0.05448825167540282
"George_Monckton-Arundell,_8th_Viscount_Galway",1882,,1,1,1,?,0.05448825167540282
T._F._O'Rahilly,1883,,1,1,1,?,0.05448825167540282
John_R._Sinnock,1888,,1,1,1,?,0.05448825167540282
Syed_Zafarul_Hasan,1885,,1,1,1,?,0.05448825167540282
Harry_Antrim,1884,,1,1,1,?,0.05448825167540282
Edna_Goodrich,1883,,1,1,1,?,0.05448825167540282
Samuel_Berger_(boxer),1884,,1,1,1,?,0.05448825167540282
Jinichi_Kusaka,1888,,1,1,1,?,0.05448825167540282
Kanoko_Okamoto,1889,,1,1,1,?,0.05448825167540282
Tringe_Smajli,1880,,1,1,1,?,0.05448825167540282
Doris_Keane,1881,,1,1,1,?,0.05448825167540282
F._Burrall_Hoffman,1882,,1,1,1,?,0.05448825167540282
Jacques_Majorelle,1886,,1,1,1,?,0.05448825167540282
Charles_Reisner,1887,,1,1,1,?,0.05448825167540282
Maurice_Boyau,1888,,1,1,1,?,0.05448825167540282
Pieter_Voltelyn_Graham_van_der_Byl,1889,,1,1,1,?,0.05448825167540282
Reginald_Barker,1886,,1,1,1,?,0.05448825167540282
Bernard_Rawlings_(Royal_Navy_officer),1889,,1,1,1,?,0.05448825167540282
Nishizō_Tsukahara,1887,,1,1,1,?,0.05448825167540282
Charles_Reidpath,1889,,1,1,1,?,0.05448825167540282
Walden_L._Ainsworth,1886,,1,1,1,?,0.05448825167540282
Olaf_M._Hustvedt,1886,,1,1,1,?,0.05448825167540282
Dorothy_Campbell,1883,,1,1,1,?,0.05448825167540282
Aubrey_Faulkner,1881,,1,1,1,?,0.05448825167540282
Essington_Lewis,1881,,1,1,1,?,0.05448825167540282
Gustav_Herglotz,1881,,1,1,1,?,0.05448825167540282
Kaarel_Eenpalu,1888,,1,1,1,?,0.05448825167540282
Frederick_J._Horne,1880,,1,1,1,?,0.05448825167540282
"John_Rodgers_(naval_officer,_World_War_I)",1881,,1,1,1,?,0.05448825167540282
Frederick_Hawksworth,1884,,1,1,1,?,0.05448825167540282
Forrest_Taylor,1883,,1,1,1,?,0.05448825167540282
Richard_Cramer,1889,,1,1,1,?,0.05448825167540282
Vean_Gregg,1885,,1,1,1,?,0.05448825167540282
H.N._Werkman,1882,,1,1,1,?,0.05448825167540282
Edward_Hanson,1889,,1,1,1,?,0.05448825167540282
Petros_Voulgaris,1884,,1,1,1,?,0.05448825167540282
Frederick_Lane,1888,,1,1,1,?,0.05448825167540282
Madame_de_Meuron,1882,,1,1,1,?,0.05448825167540282
Harold_Geiger,1884,,1,1,1,?,0.05448825167540282
Henri_Dentz,1881,,1,1,1,?,0.05448825167540282
Duffy_Lewis,1888,,1,1,1,?,0.05448825167540282
Oscar_Griswold,1886,,1,1,1,?,0.05448825167540282
Lotte_Herrlich,1883,,1,1,1,?,0.05448825167540282
Al_Christie,1881,,1,1,1,?,0.05448825167540282
Nell_Brinkley,1886,,1,1,1,?,0.05448825167540282
Bess_Streeter_Aldrich,1881,,1,1,1,?,0.05448825167540282
Enrico_Mizzi,1885,,1,1,1,?,0.05448825167540282
August_Zaleski,1883,,1,1,1,?,0.05448825167540282
Leonard_Mudie,1883,,1,1,1,?,0.05448825167540282
Ida_Rentoul_Outhwaite,1888,,1,1,1,?,0.05448825167540282
Theodore_Stark_Wilkinson,1888,,1,1,1,?,0.05448825167540282
Bessie_Barriscale,1884,,1,1,1,?,0.05448825167540282
Morton_Deyo,1887,,1,1,1,?,0.05448825167540282
Olga_Petrova,1884,,1,1,1,?,0.05448825167540282
Toivo_Kuula,1883,,1,1,1,?,0.05448825167540282
Robert_Kerr_(athlete),1882,,1,1,1,?,0.05448825167540282
Reggie_Walker,1889,,1,1,1,?,0.05448825167540282
Phil_Mead,1887,,1,1,1,?,0.05448825167540282
Maurice_Nicoll,1884,,1,1,1,?,0.05448825167540282
Tich_Freeman,1888,,1,1,1,?,0.05448825167540282
George_S._Rentz,1882,,1,1,1,?,0.05448825167540282
"John_W._Wilcox,_Jr.",1882,,1,1,1,?,0.05448825167540282
José_Eustasio_Rivera,1888,,1,1,1,?,0.05448825167540282
Herbert_Silberer,1882,,1,1,1,?,0.05448825167540282
George_A._Malcolm,1881,,1,1,1,?,0.05448825167540282
Giuseppe_Mario_Bellanca,1886,,1,1,1,?,0.05448825167540282
Florence_Easton,1882,,1,1,1,?,0.05448825167540282
Aleksandras_Stulginskis,1885,,1,1,1,?,0.05448825167540282
Kathleen_Howard,1884,,1,1,1,?,0.05448825167540282
Sam_McDaniel,1886,,1,1,1,?,0.05448825167540282
Conrad_Helfrich,1886,,1,1,1,?,0.05448825167540282
Ralph_Craig,1889,,1,1,1,?,0.05448825167540282
Joseph_Egger,1889,,1,1,1,?,0.05448825167540282
Elizabeth_Craig_(writer),1883,,1,1,1,?,0.05448825167540282
Hiroaki_Abe,1889,,1,1,1,?,0.05448825167540282
Daniel_E._Barbey,1889,,1,1,1,?,0.05448825167540282
Chujiro_Hayashi,1880,,1,1,1,?,0.05448825167540282
Venkatarama_Ramalingam_Pillai,1888,,1,1,1,?,0.05448825167540282
Eduard_Ritter_von_Schleich,1888,,1,1,1,?,0.05448825167540282
Percy_Marmont,1883,,1,1,1,?,0.05448825167540282
Thomas_Sigismund_Stribling,1881,,1,1,1,?,0.05448825167540282
Vinayak_Damodar_Savarkar,1883,,1,1,1,?,0.05448825167540282
Florence_Reed,1883,,1,1,1,?,0.05448825167540282
Yehezkel_Abramsky,1886,,1,1,1,?,0.05448825167540282
John_Lavarack,1885,,1,1,1,?,0.05448825167540282
Lynn_Thorndike,1882,,1,1,1,?,0.05448825167540282
Eulalio_Gutiérrez,1881,,1,1,1,?,0.05448825167540282
"Walter_Citrine,_1st_Baron_Citrine",1887,,1,1,1,?,0.05448825167540282
Wyndham_Standing,1880,,1,1,1,?,0.05448825167540282
Philip_Francis_Nowlan,1888,,1,1,1,?,0.05448825167540282
Ion_Inculeț,1884,,1,1,1,?,0.05448825167540282
Esteban_Terradas_i_Illa,1883,,1,1,1,?,0.05448825167540282
Husain_Salaahuddin,1881,,1,1,1,?,0.05448825167540282
Ola_Raknes,1887,,1,1,1,?,0.05448825167540282
Carl_Ebert,1887,,1,1,1,?,0.05448825167540282
Virginia_Pearson,1886,,1,1,1,?,0.05448825167540282
Edward_Sheldon,1886,,1,1,1,?,0.05448825167540282
Robert_Alfred_Theobald,1884,,1,1,1,?,0.05448825167540282
Princess_Sophie_of_Schönburg-Waldenburg,1885,,1,1,1,?,0.05448825167540282
Arthur_E._Andersen,1885,,1,1,1,?,0.05448825167540282
Henry_Norwest,1884,,1,1,1,?,0.05448825167540282
Max_Ritter_von_Müller,1887,,1,1,1,?,0.05448825167540282
Konstantinos_Tsaldaris,1884,,1,1,1,?,0.05448825167540282
Lester_Cuneo,1888,,1,1,1,?,0.05448825167540282
Julia_Sanderson,1887,,1,1,1,?,0.05448825167540282
Reginald_Farrer,1880,,1,1,1,?,0.05448825167540282
Margaret_Ayer_Barnes,1886,,1,1,1,?,0.05448825167540282
Adelina_Domingues,1888,,1,1,1,?,0.05448825167540282
Monte_Attell,1885,,1,1,1,?,0.05448825167540282
Waldemar_Bonsels,1880,,1,1,1,?,0.05448825167540282
Papa_Celestin,1884,,1,1,1,?,0.05448825167540282
Wladimir_Burliuk,1886,,1,1,1,?,0.05448825167540282
John_Murray_Anderson,1886,,1,1,1,?,0.05448825167540282
Royal_E._Ingersoll,1883,,1,1,1,?,0.05448825167540282
Michael_Fekete,1886,,1,1,1,?,0.05448825167540282
Gisela_Richter,1882,,1,1,1,?,0.05448825167540282
Albert_Hill_(athlete),1889,,1,1,1,?,0.05448825167540282
Ernst_Robert_Curtius,1886,,1,1,1,?,0.05448825167540282
Sheila_Kaye-Smith,1887,,1,1,1,?,0.05448825167540282
Albert_Plesman,1889,,1,1,1,?,0.05448825167540282
Michał_Sopoćko,1888,,1,1,1,?,0.05448825167540282
Martin_O'Meara,1882,,1,1,1,?,0.05448825167540282
William_Edmunds_(actor),1886,,1,1,1,?,0.05448825167540282
Dorothy_Payne_Whitney,1887,,1,1,1,?,0.05448825167540282
Ferenc_Münnich,1886,,1,1,1,?,0.05448825167540282
Jeanne_de_Salzmann,1889,,1,1,1,?,0.05448825167540282
Ben-Zion_Dinur,1884,,1,1,1,?,0.05448825167540282
Bee_Ho_Gray,1885,,1,1,1,?,0.05448825167540282
Marthe_Richard,1889,,1,1,1,?,0.05448825167540282
Harry_Hillman,1881,,1,1,1,?,0.05448825167540282
Julius_Fromm,1883,,1,1,1,?,0.05448825167540282
Robert_Henry_English,1888,,1,1,1,?,0.05448825167540282
Kenneth_Whiting,1881,,1,1,1,?,0.05448825167540282
Fritz_Pfleumer,1881,,1,1,1,?,0.05448825167540282
Charles_Alan_Pownall,1887,,1,1,1,?,0.05448825167540282
Grover_Whalen,1886,,1,1,1,?,0.05448825167540282
William_Barnard_Rhodes-Moorhouse,1887,,1,1,1,?,0.05448825167540282
Huntley_Gordon,1887,,1,1,1,?,0.05448825167540282
Ernest_Tyldesley,1889,,1,1,1,?,0.05448825167540282
Alfons_Maria_Jakob,1884,,1,1,1,?,0.05448825167540282
Arthur_L._Bristol,1886,,1,1,1,?,0.05448825167540282
Forrest_Smithson,1884,,1,1,1,?,0.05448825167540282
Margarita_Fischer,1886,,1,1,1,?,0.05448825167540282
Richard_C._Saufley,1884,,1,1,1,?,0.05448825167540282
John_Willard_(playwright),1885,,1,1,1,?,0.05448825167540282
Heisuke_Abe,1886,,1,1,1,?,0.05448825167540282
George_H._Plympton,1889,,1,1,1,?,0.05448825167540282
"Charles_M._Cooke,_Jr.",1886,,1,1,1,?,0.05448825167540282
Shiro_Kawase,1889,,1,1,1,?,0.05448825167540282
Peter_Bocage,1887,,1,1,1,?,0.05448825167540282
Jessie_Arms_Botke,1883,,1,1,1,?,0.05448825167540282
Raymond_Stanton_Patton,1882,,1,1,1,?,0.05448825167540282
Z._D._Mangoaela,1883,,1,1,1,?,0.05448825167540282
Elisabeth_Tamm,1880,,1,1,1,?,0.05448825167540282
Royal_H._Weller,1881,,1,1,1,?,0.05448825167540282
Clara_Nordström,1886,,1,1,1,?,0.05448825167540282
Stephen_Galatti,1888,,1,1,1,?,0.05448825167540282
Robert_James_Hudson,1885,,1,1,1,?,0.05448825167540282
Nicholas_H._Heck,1882,,1,1,1,?,0.05448825167540282
Charles_Armijo_Woodruff,1884,,1,1,1,?,0.05448825167540282
Oscar_A._C._Lund,1885,,1,1,1,?,0.05448825167540282
Nathan_Post,1881,,1,1,1,?,0.05448825167540282
Reşit_Süreyya_Gürsey,1889,,1,1,1,?,0.05448825167540282
Emma_Asson,1889,,1,1,1,?,0.05448825167540282
Georges_Imbert,1884,,1,1,1,?,0.05448825167540282
William_D._Francis,1889,,1,1,1,?,0.05448825167540282
Tutt_Brothers,1882,,1,1,1,?,0.05448825167540282
Margaret_Henley,1888,,1,1,1,?,0.05448825167540282
Leo_Otis_Colbert,1883,,1,1,1,?,0.05448825167540282
Nicolette_Bruining,1886,,1,1,1,?,0.05448825167540282
Chaturbhuj_Sahay,1883,,1,1,1,?,0.05448825167540282
René_Cresté,1881,,1,1,1,?,0.05448825167540282
Richard_S._Edwards,1885,,1,1,1,?,0.05448825167540282
Gustavo_Jiménez,1886,,1,1,1,?,0.05448825167540282
Frank_Christian_(trumpeter),1887,,1,1,1,?,0.05448825167540282
Robert_McKeen,1884,,1,1,1,?,0.05448825167540282
William_A._Glassford,1886,,1,1,1,?,0.05448825167540282
Tomoshige_Samejima,1889,,1,1,1,?,0.05448825167540282
Richard_Maury,1882,,1,1,1,?,0.05448825167540282
Mariano_Andreu,1888,,1,1,1,?,0.05448825167540282
Siegmund_Glücksmann,1884,,1,1,1,?,0.05448825167540282
Tenby_Davies,1884,,1,1,1,?,0.05448825167540282
Tore_Ørjasæter,1886,,1,1,1,?,0.05448825167540282
Manuel_Pérez_y_Curis,1884,,1,1,1,?,0.05448825167540282
Lucy_Tayiah_Eads,1888,,1,1,1,?,0.05448825167540282
Vin_Coutie,1881,,1,1,1,?,0.05448825167540282
Campbell_Tait,1886,,1,1,1,?,0.05448825167540282
Zerna_Sharp,1889,,1,1,1,?,0.05448825167540282
Jacobo_Palm,1887,,1,1,1,?,0.05448825167540282
Pete_Wendling,1888,,1,1,1,?,0.05448825167540282
Ioannis_Demestichas,1882,,1,1,1,?,0.05448825167540282
Ernest_Pingoud,1887,,1,1,1,?,0.05448825167540282
John_Morton-Finney,1889,,1,1,1,?,0.05448825167540282
Andrej_Bicenko,1886,,1,1,1,?,0.05448825167540282
William_Douglas_Cook,1884,,1,1,1,?,0.05448825167540282
Carroll_McComas,1886,,1,1,1,?,0.05448825167540282
Avra_Theodoropoulou,1880,,1,1,1,?,0.05448825167540282
Rudolph_Palm,1880,,1,1,1,?,0.05448825167540282
Benjamin_McCandlish,1886,,1,1,1,?,0.05448825167540282
William_T._Bovie,1882,,1,1,1,?,0.05448825167540282
Ethel_May_Halls,1882,,1,1,1,?,0.05448825167540282
Lee_W._Stanley,1885,,1,1,1,?,0.05448825167540282
Harry_A._Marmer,1885,,1,1,1,?,0.05448825167540282
Paltiel_Daykan,1885,,1,1,1,?,0.05448825167540282
Mario_Talavera,1885,,1,1,1,?,0.05448825167540282
George_Gaul,1885,,1,1,1,?,0.05448825167540282
Friedrich_Lahrs,1880,,1,1,1,?,0.05448825167540282
Antonina_De_Angelis,1880,,1,1,1,?,0.05448825167540282
Ola_Solberg,1886,,1,1,1,?,0.05448825167540282
Dimitrana_Ivanova,1881,,1,1,1,?,0.05448825167540282
Loyal_Blaine_Aldrich,1884,,1,1,1,?,0.05448825167540282
James_P._Boyle,1885,,1,1,1,?,0.05448825167540282
"Zdzisław_Żygulski,_Sr.",1888,,1,1,1,?,0.05448825167540282
Herb_Byrne,1887,,1,1,1,?,0.05448825167540282
Oswald_Short,1883,,1,1,1,?,0.05448825167540282
Doris_Große,1884,,1,1,1,?,0.05448825167540282
Bede_Fanning,1885,,1,1,1,?,0.05448825167540282
Catherine_Schleimer-Kill,1884,,1,1,1,?,0.05448825167540282
Chen_Xiefen,1883,,1,1,1,?,0.05448825167540282
Thakur_Anukulchandra,1888,,1,1,1,?,0.05448825167540282
"Enea_Bossi,_Sr.",1888,,1,1,1,?,0.05448825167540282
Fritz_Leiber_(Sr.),1882,,1,1,1,?,0.05448825167540282
Ya'akov_Cohen_(writer),1881,,1,1,1,?,0.05448825167540282
Edgar_Stehli,1884,,1,1,1,?,0.05448825167540282
M._Louise_Gross,1884,,1,1,1,?,0.05448825167540282
Wyncie_King,1884,,1,1,1,?,0.05448825167540282
Marius_Canard,1888,,1,1,1,?,0.05448825167540282
John_Palm,1885,,1,1,1,?,0.05448825167540282
Kristian_Hellström,1880,,1,1,1,?,0.05448825167540282
Michael_Considine,1885,,1,1,1,?,0.05448825167540282
William_R._Munroe,1886,,1,1,1,?,0.05448825167540282
Muriel_Hazel_Wright,1889,,1,1,1,?,0.05448825167540282
Aketo_Nakamura,1889,,1,1,1,?,0.05448825167540282
George_Barker_(painter),1882,,1,1,1,?,0.05448825167540282
Alessandro_Guidoni,1880,,1,1,1,?,0.05448825167540282
Gengo_Hyakutake,1882,,1,1,1,?,0.05448825167540282
T._Sathasiva_Iyer,1882,,1,1,1,?,0.05448825167540282
Ferenc_Talányi,1883,,1,1,1,?,0.05448825167540282
Andrew_Watson_Myles,1884,,1,1,1,?,0.05448825167540282
Louise_Marion_Bosworth,1881,,1,1,1,?,0.05448825167540282
John_H._Hester,1886,,1,1,1,?,0.05448825167540282
Nikolai_Cholodny,1882,,1,1,1,?,0.05448825167540282
István_Kühár,1887,,1,1,1,?,0.05448825167540282
Beatrice_Kerr,1887,,1,1,1,?,0.05448825167540282
Arch_McCarthy,1881,,1,1,1,?,0.05448825167540282
Frank_Burke_(baseball),1880,,1,1,1,?,0.05448825167540282
Dutch_Sterrett,1889,,1,1,1,?,0.05448825167540282
Cedric_Holland,1889,,1,1,1,?,0.05448825167540282
Charles_Exeter_Devereux_Crombie,1880,,1,1,1,?,0.05448825167540282
Olivia_Nordgren,1880,,1,1,1,?,0.05448825167540282
James_Lightbody,1882,,1,1,1,?,0.05448825167540282
Ferenc_Oslay,1883,,1,1,1,?,0.05448825167540282
Masao_Maruyama_(Japanese_Army_officer),1889,,1,1,1,?,0.05448825167540282
Edwin_Keppel_Bennett,1887,,1,1,1,?,0.05448825167540282
Heinrich_Schlusnus,1888,,1,1,1,?,0.05448825167540282
Ugo_Pasquale_Mifsud,1889,,1,1,1,?,0.05448825167540282
Murray_Kinnell,1889,,1,1,1,?,0.05448825167540282
Anna_Rüling,1880,,1,1,1,?,0.05448825167540282
E._L._Grant_Watson,1885,,1,1,1,?,0.05448825167540282
John_H._Hoover,1887,,1,1,1,?,0.05448825167540282
Cliff_Sterrett,1883,,1,1,1,?,0.05448825167540282
Raimu,1883,,1,1,1,?,0.05448825167540282
Jesse_Pennington,1883,,1,1,1,?,0.05448825167540282
Julio_Lozano_Díaz,1885,,1,1,1,?,0.05448825167540282
Zengo_Yoshida,1885,,1,1,1,?,0.05448825167540282
Antoni_Łomnicki,1881,,1,1,1,?,0.05448825167540282
Godfrey_Chevalier,1889,,1,1,1,?,0.05448825167540282
Gleb_W._Derujinsky,1888,,1,1,1,?,0.05448825167540282
Paul_Pilgrim,1883,,1,1,1,?,0.05448825167540282
Helen_Hoyt,1887,,1,1,1,?,0.05448825167540282
Ewart_Astill,1888,,1,1,1,?,0.05448825167540282
Otto_Froitzheim,1884,,1,1,1,?,0.05448825167540282
Johanna_Westerdijk,1883,,1,1,1,?,0.05448825167540282
Louise_Schroeder,1887,,1,1,1,?,0.05448825167540282
George_Kenner,1888,,1,1,1,?,0.05448825167540282
Amedeo_Maiuri,1886,,1,1,1,?,0.05448825167540282
Dimitrios_Semsis,1883,,1,1,1,?,0.05448825167540282
Porfirio_Barba-Jacob,1883,,1,1,1,?,0.05448825167540282
Heikki_Ritavuori,1880,,1,1,1,?,0.05448825167540282
Charlie_Parker_(cricketer),1882,,1,1,1,?,0.05448825167540282
Arthur_Borton,1883,,1,1,1,?,0.05448825167540282
Rudolf_Ramek,1881,,1,1,1,?,0.05448825167540282
George_Bagration_of_Mukhrani,1884,,1,1,1,?,0.05448825167540282
George_Roby_Dempster,1887,,1,1,1,?,0.05448825167540282
Anton_Köllisch,1888,,1,1,1,?,0.05448825167540282
Oliver_Kirk,1884,,1,1,1,?,0.05448825167540282
Eduard_Künneke,1885,,1,1,1,?,0.05448825167540282
Alfred_Francis_Blakeney_Carpenter,1881,,1,1,1,?,0.05448825167540282
Marion_Leonard,1881,,1,1,1,?,0.05448825167540282
Anne_Bauchens,1882,,1,1,1,?,0.05448825167540282
Reuvein_Margolies,1889,,1,1,1,?,0.05448825167540282
Giulio_Gavotti,1882,,1,1,1,?,0.05448825167540282
Zoë_Akins,1886,,1,1,1,?,0.05448825167540282
Ernest_Palmer_(American_cinematographer),1885,,1,1,1,?,0.05448825167540282
Edwin_Balmer,1883,,1,1,1,?,0.05448825167540282
George_McMillin,1889,,1,1,1,?,0.05448825167540282
Charles_Christie,1880,,1,1,1,?,0.05448825167540282
Frank_Foster_(cricketer),1889,,1,1,1,?,0.05448825167540282
Rai_Rajeshwar_Bali,1889,,1,1,1,?,0.05448825167540282
Ado_Birk,1883,,1,1,1,?,0.05448825167540282
Margit_Slachta,1884,,1,1,1,?,0.05448825167540282
Armand_J._Piron,1888,,1,1,1,?,0.05448825167540282
Robert_G._Fowler,1884,,1,1,1,?,0.05448825167540282
Tom_Brown_(trombonist),1888,,1,1,1,?,0.05448825167540282
Edgar_Church,1888,,1,1,1,?,0.05448825167540282
Gadicherla_Harisarvottama_Rao,1883,,1,1,1,?,0.05448825167540282
Doris_Blackburn,1889,,1,1,1,?,0.05448825167540282
Channing_Pollock_(writer),1880,,1,1,1,?,0.05448825167540282
"Max_Moody,_Sr.",1883,,1,1,1,?,0.05448825167540282
G._Murray_Hulbert,1881,,1,1,1,?,0.05448825167540282
Jessie_Aspinall,1880,,1,1,1,?,0.05448825167540282
Otto_Dowling,1881,,1,1,1,?,0.05448825167540282
Violet_MacMillan,1887,,1,1,1,?,0.05448825167540282
Armas_Launis,1884,,1,1,1,?,0.05448825167540282
Michael_Somogyi,1883,,1,1,1,?,0.05448825167540282
Rachel_Katznelson-Shazar,1885,,1,1,1,?,0.05448825167540282
Rafael_Arévalo_Martínez,1884,,1,1,1,?,0.05448825167540282
Nicholas_Charnetsky,1884,,1,1,1,?,0.05448825167540282
Walther_Stampfli,1884,,1,1,1,?,0.05448825167540282
Kirk_Bryan_(geologist),1888,,1,1,1,?,0.05448825167540282
Mike_Brady_(golfer),1887,,1,1,1,?,0.05448825167540282
Frank_Tarrant,1880,,1,1,1,?,0.05448825167540282
Albert_Orsborn,1886,,1,1,1,?,0.05448825167540282
Liberato_Pinto,1880,,1,1,1,?,0.05448825167540282
Alberto_Gerchunoff,1883,,1,1,1,?,0.05448825167540282
Naum_Torbov,1880,,1,1,1,?,0.05448825167540282
Wilhelm_Fritz_von_Roettig,1888,,1,1,1,?,0.05448825167540282
Kojo_Tovalou_Houénou,1887,,1,1,1,?,0.05448825167540282
John_van_Melle,1887,,1,1,1,?,0.05448825167540282
Marcel-Bruno_Gensoul,1880,,1,1,1,?,0.05448825167540282
George_Shiels,1886,,1,1,1,?,0.05448825167540282
Luis_Cluzeau_Mortet,1888,,1,1,1,?,0.05448825167540282
Raymond_DeWalt,1885,,1,1,1,?,0.05448825167540282
Herbert_Strudwick,1880,,1,1,1,?,0.05448825167540282
Hermann_Obrecht,1882,,1,1,1,?,0.05448825167540282
Merrill_C._Meigs,1883,,1,1,1,?,0.05448825167540282
Claude_Roger-Marx,1888,,1,1,1,?,0.05448825167540282
Harry_Sunderland,1889,,1,1,1,?,0.05448825167540282
Alice_Hollister,1886,,1,1,1,?,0.05448825167540282
Stuart_Paton,1883,,1,1,1,?,0.05448825167540282
William_Whitworth,1884,,1,1,1,?,0.05448825167540282
Dorothy_Donnelly,1880,,1,1,1,?,0.05448825167540282
Markus_Reiner,1886,,1,1,1,?,0.05448825167540282
MacGillivray_Milne,1882,,1,1,1,?,0.05448825167540282
Eduard_C._Lindeman,1885,,1,1,1,?,0.05448825167540282
Thomas_Quinlan_(impresario),1881,,1,1,1,?,0.05448825167540282
R._Williams_Parry,1884,,1,1,1,?,0.05448825167540282
Olav_Aukrust,1883,,1,1,1,?,0.05448825167540282
Louis_Wagner,1882,,1,1,1,?,0.05448825167540282
Armand_Annet,1888,,1,1,1,?,0.05448825167540282
María_Beatriz_del_Rosario_Arroyo,1884,,1,1,1,?,0.05448825167540282
Alberto_di_Jorio,1884,,1,1,1,?,0.05448825167540282
Fritz_August_Breuhaus_de_Groot,1883,,1,1,1,?,0.05448825167540282
Yitzhak_Baer,1888,,1,1,1,?,0.05448825167540282
Orrick_Johns,1887,,1,1,1,?,0.05448825167540282
Léon_Noël,1888,,1,1,1,?,0.05448825167540282
Donald_B._Beary,1888,,1,1,1,?,0.05448825167540282
Valli_Valli,1882,,1,1,1,?,0.05448825167540282
C._E._Woolman,1889,,1,1,1,?,0.05448825167540282
Hawthorne_C._Gray,1889,,1,1,1,?,0.05448825167540282
Jacob_Fichman,1881,,1,1,1,?,0.05448825167540282
Benjamin_(Fedchenkov),1880,,1,1,1,?,0.05448825167540282
Leonie_von_Meusebach–Zesch,1882,,1,1,1,?,0.05448825167540282
Isabel_J._Cox,1882,,1,1,1,?,0.05448825167540282
Julian_C._Smith,1885,,1,1,1,?,0.05448825167540282
Paul_Popenoe,1888,,1,1,1,?,0.05448825167540282
Pier_Ruggero_Piccio,1880,,1,1,1,?,0.05448825167540282
Joseph_Trumpeldor,1880,,1,1,1,?,0.05448825167540282
Willem_Drees,1886,,1,1,1,?,0.05448825167540282
Kermit_Roosevelt,1889,,1,1,1,?,0.05448825167540282
Tudor_Arghezi,1880,,1,1,1,?,0.05448825167540282
Dally_Messenger,1883,,1,1,1,?,0.05448825167540282
Henry_F._Phillips,1889,,1,1,1,?,0.05448825167540282
James_Somerville,1882,,1,1,1,?,0.05448825167540282
Peter_Fraser_(New_Zealand_politician),1884,,1,1,1,?,0.05448825167540282
Gerhard_Ritter,1888,,1,1,1,?,0.05448825167540282
"John_Jacob_Astor,_1st_Baron_Astor_of_Hever",1886,,1,1,1,?,0.05448825167540282
Ma_Rainey,1886,,1,1,1,?,0.05448825167540282
Mills_Brothers,1889,,1,1,1,?,0.05448825167540282
Broncho_Billy_Anderson,1880,,1,1,1,?,0.05448825167540282
Roger_Nash_Baldwin,1884,,1,1,1,?,0.05448825167540282
Hugo_Schmeisser,1884,,1,1,1,?,0.05448825167540282
Karl_von_Terzaghi,1883,,1,1,1,?,0.05448825167540282
Charles_Ruggles,1886,,1,1,1,?,0.05448825167540282
"Bruce_Fraser,_1st_Baron_Fraser_of_North_Cape",1888,,1,1,1,?,0.05448825167540282
Harold_Hitz_Burton,1888,,1,1,1,?,0.05448825167540282
Kid_Ory,1886,,1,1,1,?,0.05448825167540282
Miles_Malleson,1888,,1,1,1,?,0.05448825167540282
Sam_Rayburn,1882,,1,1,1,?,0.05448825167540282
Mamie_Smith,1883,,1,1,1,?,0.05448825167540282
Hubert_Latham,1883,,1,1,1,?,0.05448825167540282
Rebecca_Helferich_Clarke,1886,,1,1,1,?,0.05448825167540282
Aurora_Quezon,1888,,1,1,1,?,0.05448825167540282
Edna_May_Oliver,1883,,1,1,1,?,0.05448825167540282
George_Herriman,1880,,1,1,1,?,0.05448825167540282
Hans-Jürgen_von_Arnim,1889,,1,1,1,?,0.05448825167540282
Maurice_Utrillo,1883,,1,1,1,?,0.05448825167540282
Charles_Sheeler,1883,,1,1,1,?,0.05448825167540282
Sylvia_Beach,1887,,1,1,1,?,0.05448825167540282
James_Gleason,1882,,1,1,1,?,0.05448825167540282
Gabriel_Voisin,1880,,1,1,1,?,0.05448825167540282
William_Temple_(bishop),1881,,1,1,1,?,0.05448825167540282
Laurette_Taylor,1883,,1,1,1,?,0.05448825167540282
Bertram_Ramsay,1883,,1,1,1,?,0.05448825167540282
Eric_Gill,1882,,1,1,1,?,0.05448825167540282
Syedna_Taher_Saifuddin,1888,,1,1,1,?,0.05448825167540282
Edgar_Guest,1881,,1,1,1,?,0.05448825167540282
Leo_Geyr_von_Schweppenburg,1886,,1,1,1,?,0.05448825167540282
Thomas_Hart_Benton_(painter),1889,,1,1,1,?,0.05448825167540282
Sacha_Guitry,1885,,1,1,1,?,0.05448825167540282
Ed_Wynn,1886,,1,1,1,?,0.05448825167540282
Pearl_White,1889,,1,1,1,?,0.05448825167540282
Geoffrey_de_Havilland,1882,,1,1,1,?,0.05448825167540282
Allama_Mashriqi,1888,,1,1,1,?,0.05448825167540282
Tommy_Burns_(boxer),1881,,1,1,1,?,0.05448825167540282
Martin_and_Osa_Johnson,1884,,1,1,1,?,0.05448825167540282
Günther_Lütjens,1889,,1,1,1,?,0.05448825167540282
Cathleen_Nesbitt,1888,,1,1,1,?,0.05448825167540282
Billie_Burke,1884,,1,1,1,?,0.05448825167540282
J._Frank_Dobie,1888,,1,1,1,?,0.05448825167540282
Sara_Allgood,1880,,1,1,1,?,0.05448825167540282
Sigmund_Romberg,1887,,1,1,1,?,0.05448825167540282
Jerome_Kern,1885,,1,1,1,?,0.05448825167540282
Frank_Nitti,1886,,1,1,1,?,0.05448825167540282
Cyclone_Taylor,1884,,1,1,1,?,0.05448825167540282
Willis_O'Brien,1886,,1,1,1,?,0.05448825167540282
Florence_La_Badie,1888,,1,1,1,?,0.05448825167540282
Marjorie_Rambeau,1889,,1,1,1,?,0.05448825167540282
Karel_Doorman,1889,,1,1,1,?,0.05448825167540282
Owen_Moore,1886,,1,1,1,?,0.05448825167540282
Pat_Sullivan_(film_producer),1885,,1,1,1,?,0.05448825167540282
Robert_L._Ghormley,1883,,1,1,1,?,0.05448825167540282
"Bob_Jones,_Sr.",1883,,1,1,1,?,0.05448825167540282
Tom_Phillips_(Royal_Navy_officer),1888,,1,1,1,?,0.05448825167540282
Tarsila_do_Amaral,1886,,1,1,1,?,0.05448825167540282
Pascin,1885,,1,1,1,?,0.05448825167540282
Jack_Holt_(actor),1888,,1,1,1,?,0.05448825167540282
Joyce_Cary,1888,,1,1,1,?,0.05448825167540282
Anna_Q._Nilsson,1888,,1,1,1,?,0.05448825167540282
Giovanni_Papini,1881,,1,1,1,?,0.05448825167540282
Roland_Young,1887,,1,1,1,?,0.05448825167540282
Xul_Solar,1887,,1,1,1,?,0.05448825167540282
Richmond_K._Turner,1885,,1,1,1,?,0.05448825167540282
E._J._Pratt,1882,,1,1,1,?,0.05448825167540282
Noah_Beery,1882,,1,1,1,?,0.05448825167540282
Maurice_Chevalier,1888,,1,1,1,?,0.05448825167540282
Jean_Patou,1880,,1,1,1,?,0.05448825167540282
Theda_Bara,1885,,1,1,1,?,0.05448825167540282
Gerald_Gardner_(Wiccan),1884,,1,1,1,?,0.05448825167540282
Hubert_Wilkins,1888,,1,1,1,?,0.05448825167540282
José_Abad_Santos,1886,,1,1,1,?,0.05448825167540282
Leon_Schlesinger,1884,,1,1,1,?,0.05448825167540282
Inez_Milholland,1886,,1,1,1,?,0.05448825167540282
Harry_Ricardo,1885,,1,1,1,?,0.05448825167540282
John_Tovey,1885,,1,1,1,?,0.05448825167540282
Amadeo_Bordiga,1889,,1,1,1,?,0.05448825167540282
List_of_Dutch_supercentenarians#Ann_Jemimia_Flower,1885,,1,1,1,?,0.05448825167540282
List_of_Dutch_supercentenarians#Geertje_Roelinga-de_Groot,1887,,1,1,1,?,0.05448825167540282
Stanley_Forman_Reed,1884,,1,1,1,?,0.05448825167540282
Clive_Bell,1881,,1,1,1,?,0.05448825167540282
Tom_Mix,1880,,1,1,1,?,0.05448825167540282
Walter_Nash,1882,,1,1,1,?,0.05448825167540282
Moroni_Olsen,1889,,1,1,1,?,0.05448825167540282
Billie_Burke,1885,,1,1,1,?,0.05448825167540282
Francesco_Baracca,1888,,1,1,1,?,0.05448825167540282
Milan_Rastislav_Štefánik,1880,,1,1,1,?,0.05448825167540282
Una_O'Connor_(actress),1880,,1,1,1,?,0.05448825167540282
C._K._Scott-Moncrieff,1889,,1,1,1,?,0.05448825167540282
Squizzy_Taylor,1888,,1,1,1,?,0.05448825167540282
Robinson_Jeffers,1887,,1,1,1,?,0.05448825167540282
William_Joseph_Simmons,1880,,1,1,1,?,0.05448825167540282
Eddie_Collins,1887,,1,1,1,?,0.05448825167540282
Marion_Lorne,1883,,1,1,1,?,0.05448825167540282
Bidhan_Chandra_Roy,1882,,1,1,1,?,0.05448825167540282
Geoffrey_Fisher,1887,,1,1,1,?,0.05448825167540282
Sophie_Tucker,1884,,1,1,1,?,0.05448825167540282
Ivan_Meštrović,1883,,1,1,1,?,0.05448825167540282
George_Kenney,1889,,1,1,1,?,0.05448825167540282
Barry_Fitzgerald,1888,,1,1,1,?,0.05448825167540282
Grantland_Rice,1880,,1,1,1,?,0.05448825167540282
Monty_Woolley,1888,,1,1,1,?,0.05448825167540282
Max_Fleischer,1883,,1,1,1,?,0.05448825167540282
Christabel_Pankhurst,1880,,1,1,1,?,0.05448825167540282
Troy_H._Middleton,1889,,1,1,1,?,0.05448825167540282
Neville_Cardus,1888,,1,1,1,?,0.05448825167540282
Mack_Sennett,1880,,1,1,1,?,0.05448825167540282
John_Flynn_(minister),1880,,1,1,1,?,0.05448825167540282
Anthony_Wilding,1883,,1,1,1,?,0.05448825167540282
Donald_Crisp,1882,,1,1,1,?,0.05448825167540282
Norman_Thomas,1884,,1,1,1,?,0.05448825167540282
Fritz_Pfeffer,1889,,1,1,1,?,0.05448825167540282
"John_S._McCain,_Sr.",1884,,1,1,1,?,0.05448825167540282
Hiram_Wesley_Evans,1881,,1,1,1,?,0.05448825167540282
"George_""Gabby""_Hayes",1885,,1,1,1,?,0.05448825167540282
Jacob_Epstein,1880,,1,1,1,?,0.05448825167540282
Sir_Richard_O'Connor,1889,,1,1,1,?,0.05448825167540282
W._T._Cosgrave,1880,,1,1,1,?,0.05448825167540282
Ernst_Hanfstaengl,1887,,1,1,1,?,0.05448825167540282
Charles_Williams_(UK_writer),1886,,1,1,1,?,0.05448825167540282
Angela_Hitler,1883,,1,1,1,?,0.05448825167540282
A._Y._Jackson,1882,,1,1,1,?,0.05448825167540282
St_John_Philby,1885,,1,1,1,?,0.05448825167540282
Lytton_Strachey,1880,,1,1,1,?,0.05448825167540282
Gladys_Cooper,1888,,1,1,1,?,0.05448825167540282
Sylvia_Pankhurst,1882,,1,1,1,?,0.05448825167540282
Adrian_Boult,1889,,1,1,1,?,0.05448825167540282
Edward_Everett_Horton,1886,,1,1,1,?,0.05448825167540282
John_L._Lewis,1880,,1,1,1,?,0.05448825167540282
Clara_Blandick,1880,,1,1,1,?,0.05448825167540282
George_S._Kaufman,1889,,1,1,1,?,0.05448825167540282
Anita_Loos,1888,,1,1,1,?,0.05448825167540282
"Joe_""King""_Oliver",1885,,1,1,1,?,0.05448825167540282
Julius_Freed,1887,,1,1,1,?,0.05448825167540282
Burt_Mustin,1884,,1,1,1,?,0.05448825167540282
Sam_Langford,1883,,1,1,1,?,0.05448825167540282
Will_Hay,1888,,1,1,1,?,0.05448825167540282
Ulysses_S._Grant_III,1881,,1,1,1,?,0.05448825167540282
Grover_Cleveland_Alexander,1887,,1,1,1,?,0.05448825167540282
Fan_S._Noli,1882,,1,1,1,?,0.05448825167540282
Alexander_Woollcott,1887,,1,1,1,?,0.05448825167540282
Guccio_Gucci,1881,,1,1,1,?,0.05448825167540282
Violet_Jessop,1887,,1,1,1,?,0.05448825167540282
Walter_Huston,1883,,1,1,1,?,0.05448825167540282
Clementine_Churchill,1885,,1,1,1,?,0.05448825167540282
Hubert_Harrison,1883,,1,1,1,?,0.05448825167540282
Malcolm_Campbell,1885,,1,1,1,?,0.05448825167540282
Sybil_Thorndike,1882,,1,1,1,?,0.05448825167540282
Charles_White_Whittlesey,1884,,1,1,1,?,0.05448825167540282
Max_Linder,1883,,1,1,1,?,0.05448825167540282
Francis_X._Bushman,1883,,1,1,1,?,0.05448825167540282
Luisa_Casati,1881,,1,1,1,?,0.05448825167540282
Umberto_Nobile,1885,,1,1,1,?,0.05448825167540282
Thomas_Selfridge,1882,,1,1,1,?,0.05448825167540282
Vittorio_Pozzo,1886,,1,1,1,?,0.05448825167540282
Chico_Marx,1887,,1,1,1,?,0.05448825167540282
Fred_Quimby,1886,,1,1,1,?,0.05448825167540282
Lynn_Fontanne,1887,,1,1,1,?,0.05448825167540282
Stanisław_Ignacy_Witkiewicz,1885,,1,1,1,?,0.05448825167540282
Lluís_Companys,1883,,1,1,1,?,0.05448825167540282
Edith_Bratt,1889,,1,1,1,?,0.05448825167540282
Thomas_Blamey,1884,,1,1,1,?,0.05448825167540282
"Simon_Bolivar_Buckner,_Jr.",1886,,1,1,1,?,0.05448825167540282
Jan_Masaryk,1886,,1,1,1,?,0.05448825167540282
George_Abbott,1887,,1,1,1,?,0.05448825167540282
Bradbury_Robinson,1884,,1,1,1,?,0.05448825167540282
Robert_J._Flaherty,1884,,1,1,1,?,0.05448825167540282
Harry_Ferguson,1884,,1,1,1,?,0.05448825167540282
Conrad_Aiken,1889,,1,1,1,?,0.05448825167540282
Beulah_Bondi,1889,,1,1,1,?,0.05448825167540282
Mirza_Basheer-ud-Din_Mahmood_Ahmad,1889,,1,1,1,?,0.05448825167540282
Carl_Van_Vechten,1880,,1,1,1,?,0.05448825167540282
Ring_Lardner,1885,,1,1,1,?,0.05448825167540282
Felix_Ysagun_Manalo,1886,,1,1,1,?,0.05448825167540282
Jean_Hersholt,1886,,1,1,1,?,0.05448825167540282
Tod_Browning,1880,,1,1,1,?,0.05448825167540282
Sam_Crawford,1880,,1,1,1,?,0.05448825167540282
Texas_Guinan,1884,,1,1,1,?,0.05448825167540282
R._G._Collingwood,1889,,1,1,1,?,0.05448825167540282
Allan_Dwan,1885,,1,1,1,?,0.05448825167540282
Spring_Byington,1886,,1,1,1,?,0.05448825167540282
Han_van_Meegeren,1889,,1,1,1,?,0.05448825167540282
Damon_Runyon,1880,,1,1,1,?,0.05448825167540282
Vernon_Castle,1887,,1,1,1,?,0.05448825167540282
Henry_J._Kaiser,1882,,1,1,1,?,0.05448825167540282
Austin_Osman_Spare,1886,,1,1,1,?,0.05448825167540282
Blaise_Cendrars,1887,,1,1,1,?,0.05448825167540282
Mary_Webb,1881,,1,1,1,?,0.05448825167540282
Lothar_von_Arnauld_de_la_Perière,1886,,1,1,1,?,0.05448825167540282
John_Cyril_Porte,1884,,1,1,1,?,0.05448825167540282
Felicjan_Sławoj_Składkowski,1885,,1,1,1,?,0.05448825167540282
Louis_Chauvin,1881,,1,1,1,?,0.05448825167540282
Yusif_Vazir_Chamanzaminli,1887,,1,1,1,?,0.05448825167540282
Milton_Sills,1882,,1,1,1,?,0.05448825167540282
Wyndham_Halswelle,1882,,1,1,1,?,0.05448825167540282
Elsie_Ferguson,1883,,1,1,1,?,0.05448825167540282
Millard_Harmon,1888,,1,1,1,?,0.05448825167540282
Paul_Bernays,1888,,1,1,1,?,0.05448825167540282
Maude_Farris-Luse,1887,,1,1,1,?,0.05448825167540282
Florence_Turner,1885,,1,1,1,?,0.05448825167540282
Ethel_Clayton,1882,,1,1,1,?,0.05448825167540282
Alfred_Noyes,1880,,1,1,1,?,0.05448825167540282
Elsa_Maxwell,1883,,1,1,1,?,0.05448825167540282
Mary_MacLane,1881,,1,1,1,?,0.05448825167540282
Jorge_Chávez,1887,,1,1,1,?,0.05448825167540282
James_Cruze,1884,,1,1,1,?,0.05448825167540282
Kamato_Hongo,1887,,1,1,1,?,0.05448825167540282
Garfield_Wood,1880,,1,1,1,?,0.05448825167540282
Richard_Oswald,1880,,1,1,1,?,0.05448825167540282
Oren_E._Long,1889,,1,1,1,?,0.05448825167540282
Nicholas_Schenck,1881,,1,1,1,?,0.05448825167540282
Herman_Bing,1889,,1,1,1,?,0.05448825167540282
Alf_Common,1880,,1,1,1,?,0.05448825167540282
Zoltán_Tildy,1889,,1,1,1,?,0.05448825167540282
Peter_Stoner,1888,,1,1,1,?,0.05448825167540282
Henry_Kent_Hewitt,1887,,1,1,1,?,0.05448825167540282
Rupert_Downes,1885,,1,1,1,?,0.05448825167540282
Margaret_Wycherly,1881,,1,1,1,?,0.05448825167540282
Johan_Laidoner,1884,,1,1,1,?,0.05448825167540282
Henry_Fillmore,1881,,1,1,1,?,0.05448825167540282
Aleksandr_Vertinsky,1889,,1,1,1,?,0.05448825167540282
Hugo_Bergmann,1883,,1,1,1,?,0.05448825167540282
James_Stephenson,1889,,1,1,1,?,0.05448825167540282
Valeska_Suratt,1882,,1,1,1,?,0.05448825167540282
Lew_Cody,1884,,1,1,1,?,0.05448825167540282
Otto_Plath,1885,,1,1,1,?,0.05448825167540282
Harry_Ruby,1885,,1,1,1,?,0.05448825167540282
Norman_Scott_(Medal_of_Honor),1889,,1,1,1,?,0.05448825167540282
Martha_Wentworth,1889,,1,1,1,?,0.05448825167540282
Arthur_S._Carpender,1884,,1,1,1,?,0.05448825167540282
André_Marty,1886,,1,1,1,?,0.05448825167540282
Adolphe_Pégoud,1889,,1,1,1,?,0.05448825167540282
Rudolf_Weigl,1883,,1,1,1,?,0.05448825167540282
Hasui_Kawase,1883,,1,1,1,?,0.05448825167540282
Eleazar_López_Contreras,1883,,1,1,1,?,0.05448825167540282
Mary_Alden,1883,,1,1,1,?,0.05448825167540282
Josef_Frings,1887,,1,1,1,?,0.05448825167540282
Charles_Nordhoff,1887,,1,1,1,?,0.05448825167540282
Roscoe_Arbuckle,1887,,1,1,1,?,0.05448825167540282
Elsie_J._Oxenham,1880,,1,1,1,?,0.05448825167540282
Tadeusz_Kutrzeba,1886,,1,1,1,?,0.05448825167540282
Isabel_Randolph,1889,,1,1,1,?,0.05448825167540282
Marie_Brémont,1886,,1,1,1,?,0.05448825167540282
Theodore_Kosloff,1882,,1,1,1,?,0.05448825167540282
Milan_Vidmar,1885,,1,1,1,?,0.05448825167540282
Homer_S._Ferguson,1889,,1,1,1,?,0.05448825167540282
Tony_Jannus,1889,,1,1,1,?,0.05448825167540282
Eddie_Collins_(actor),1883,,1,1,1,?,0.05448825167540282
Paul_Legentilhomme,1884,,1,1,1,?,0.05448825167540282
Mokichi_Okada,1882,,1,1,1,?,0.05448825167540282
Walter_Baldwin,1889,,1,1,1,?,0.05448825167540282
Jan_Kubelík,1880,,1,1,1,?,0.05448825167540282
Hans_Gerhard_Creutzfeldt,1885,,1,1,1,?,0.05448825167540282
Hans_Wilsdorf,1881,,1,1,1,?,0.05448825167540282
Hans_Moser_(actor),1880,,1,1,1,?,0.05448825167540282
Ilo_Wallace,1888,,1,1,1,?,0.05448825167540282
Alfred_A._Cunningham,1882,,1,1,1,?,0.05448825167540282
Aubrey_Fitch,1883,,1,1,1,?,0.05448825167540282
Hidetsugu_Yagi,1886,,1,1,1,?,0.05448825167540282
Louis_Charles_Breguet,1880,,1,1,1,?,0.05448825167540282
Catherine_Bramwell-Booth,1883,,1,1,1,?,0.05448825167540282
Thomas_J._Moore,1883,,1,1,1,?,0.05448825167540282
Nikolai_Astrup,1880,,1,1,1,?,0.05448825167540282
José_Mendes_Cabeçadas,1883,,1,1,1,?,0.05448825167540282
Paul_Leni,1885,,1,1,1,?,0.05448825167540282
William_S._Pye,1880,,1,1,1,?,0.05448825167540282
Lilias_Armstrong,1882,,1,1,1,?,0.05448825167540282
Jack_Hoxie,1885,,1,1,1,?,0.05448825167540282
Elsa_Brändström,1888,,1,1,1,?,0.05448825167540282
Thomas_de_Hartmann,1885,,1,1,1,?,0.05448825167540282
Evadne_Price,1888,,1,1,1,?,0.05448825167540282
Jonas_H._Ingram,1886,,1,1,1,?,0.05448825167540282
Nobutake_Kondō,1886,,1,1,1,?,0.05448825167540282
Lima_Barreto,1881,,1,1,1,?,0.05448825167540282
Bela_Lugosi,1882,,1,1,1,?,0.05448825167540282
George_Fitzmaurice,1885,,1,1,1,?,0.05448825167540282
Shōji_Nishimura,1889,,1,1,1,?,0.05448825167540282
Arturo_Rawson,1885,,1,1,1,?,0.05448825167540282
Ion_Agârbiceanu,1882,,1,1,1,?,0.05448825167540282
Irene_Fenwick,1887,,1,1,1,?,0.05448825167540282
Alison_Uttley,1884,,1,1,1,?,0.05448825167540282
Alcide_Nunez,1884,,1,1,1,?,0.05448825167540282
Marjorie_Newell_Robb,1889,,1,1,1,?,0.05448825167540282
Claud_Allister,1888,,1,1,1,?,0.05448825167540282
John_Painter_(supercentenarian),1888,,1,1,1,?,0.05448825167540282
Belle_da_Costa_Greene,1883,,1,1,1,?,0.05448825167540282
Harold_Saxton_Burr,1889,,1,1,1,?,0.05448825167540282
Claude_Dornier,1884,,1,1,1,?,0.05448825167540282
Lead_Belly,1888,,1,1,1,?,0.05448825167540282
Dick_Elliott,1886,,1,1,1,?,0.05448825167540282
Edgar_J._Kaufmann,1885,,1,1,1,?,0.05448825167540282
William_Frawley,1887,,1,1,1,?,0.05448825167540282
Rose_Wilder_Lane,1886,,1,1,1,?,0.05448825167540282
Edward_Bach,1886,,1,1,1,?,0.05448825167540282
Knute_Rockne,1888,,1,1,1,?,0.05448825167540282
Nick_LaRocca,1889,,1,1,1,?,0.05448825167540282
Susan_Sutherland_Isaacs,1885,,1,1,1,?,0.05448825167540282
Walter_Knott,1889,,1,1,1,?,0.05448825167540282
Nikolaos_Plastiras,1883,,1,1,1,?,0.05448825167540282
Lincoln_Beachey,1887,,1,1,1,?,0.05448825167540282
Douglass_Dumbrille,1889,,1,1,1,?,0.05448825167540282
Robert_Hichens_(sailor),1882,,1,1,1,?,0.05448825167540282
Zack_Wheat,1888,,1,1,1,?,0.05448825167540282
Aristides_de_Sousa_Mendes,1885,,1,1,1,?,0.05448825167540282
Anton_Flettner,1885,,1,1,1,?,0.05448825167540282
Johnny_Gruelle,1880,,1,1,1,?,0.05448825167540282
Harry_Benjamin,1885,,1,1,1,?,0.05448825167540282
Lotte_Lehmann,1888,,1,1,1,?,0.05448825167540282
Walther_Schwieger,1885,,1,1,1,?,0.05448825167540282
Subramania_Bharati,1882,,1,1,1,?,0.05448825167540282
Pauline_Frederick,1883,,1,1,1,?,0.05448825167540282
Volodymyr_Vynnychenko,1880,,1,1,1,?,0.05448825167540282
Velimir_Khlebnikov,1885,,1,1,1,?,0.05448825167540282
Waite_Phillips,1883,,1,1,1,?,0.05448825167540282
Grace_Brown,1886,,1,1,1,?,0.05448825167540282
Panait_Istrati,1884,,1,1,1,?,0.05448825167540282
Hans_Richter_(artist),1888,,1,1,1,?,0.05448825167540282
Chester_Conklin,1886,,1,1,1,?,0.05448825167540282
Isaac_C._Kidd,1884,,1,1,1,?,0.05448825167540282
George_Preca,1880,,1,1,1,?,0.05448825167540282
George_Bancroft_(actor),1882,,1,1,1,?,0.05448825167540282
Andrew_Higgins,1886,,1,1,1,?,0.05448825167540282
Jack_Hobbs,1882,,1,1,1,?,0.05448825167540282
Hedda_Hopper,1885,,1,1,1,?,0.05448825167540282
Lancelot_Holland,1887,,1,1,1,?,0.05448825167540282
James_E._Casey,1888,,1,1,1,?,0.05448825167540282
John_Cunningham_(Royal_Navy_officer),1885,,1,1,1,?,0.05448825167540282
Francis_Browne,1880,,1,1,1,?,0.05448825167540282
Raoul_Lufbery,1885,,1,1,1,?,0.05448825167540282
Rupert_Brooke,1887,,1,1,1,?,0.05448825167540282
John_Alexander_Douglas_McCurdy,1886,,1,1,1,?,0.05448825167540282
Monteiro_Lobato,1882,,1,1,1,?,0.05448825167540282
Mary_Boland,1882,,1,1,1,?,0.05448825167540282
Harry_Hooper,1887,,1,1,1,?,0.05448825167540282
Yitzhak_HaLevi_Herzog,1888,,1,1,1,?,0.05448825167540282
Thomas_Sopwith,1888,,1,1,1,?,0.05448825167540282
Chester_Gillette,1883,,1,1,1,?,0.05448825167540282
Walter_Terence_Stace,1886,,1,1,1,?,0.05448825167540282
Gaby_Deslys,1881,,1,1,1,?,0.05448825167540282
Vicki_Baum,1888,,1,1,1,?,0.05448825167540282
W._C._Fields,1880,,1,1,1,?,0.05448825167540282
Harvey_Spencer_Lewis,1883,,1,1,1,?,0.05448825167540282
Arnold_Zweig,1887,,1,1,1,?,0.05448825167540282
Alfonso_de_Orleans_y_Borbón,1886,,1,1,1,?,0.05448825167540282
Harry_H._Laughlin,1880,,1,1,1,?,0.05448825167540282
Bror_von_Blixen-Finecke,1886,,1,1,1,?,0.05448825167540282
Alfonso_XIII_of_Spain,1886,,1,1,1,?,0.05448825167540282
Tuti_Yusupova,1880,,1,1,1,?,0.05448825167540282
Raymonde_de_Laroche,1882,,1,1,1,?,0.05448825167540282
Ralph_DePalma,1884,,1,1,1,?,0.05448825167540282
Ernst_Kretschmer,1888,,1,1,1,?,0.05448825167540282
Ture_Nerman,1886,,1,1,1,?,0.05448825167540282
Marie_Doro,1882,,1,1,1,?,0.05448825167540282
L._S._Lowry,1887,,1,1,1,?,0.05448825167540282
Matt_Moore_(actor),1888,,1,1,1,?,0.05448825167540282
Władysław_Raczkiewicz,1885,,1,1,1,?,0.05448825167540282
"Arthur_Schlesinger,_Sr.",1888,,1,1,1,?,0.05448825167540282
Oliver_Wallace,1887,,1,1,1,?,0.05448825167540282
George_Jean_Nathan,1882,,1,1,1,?,0.05448825167540282
Margaret_Caroline_Anderson,1886,,1,1,1,?,0.05448825167540282
Mary_Nash,1884,,1,1,1,?,0.05448825167540282
Eugen_Leviné,1883,,1,1,1,?,0.05448825167540282
Archie_Hahn,1880,,1,1,1,?,0.05448825167540282
Marguerite_Clark,1883,,1,1,1,?,0.05448825167540282
Ralph_Hartley,1888,,1,1,1,?,0.05448825167540282
Alfred_Carlton_Gilbert,1884,,1,1,1,?,0.05448825167540282
William_L._Laurence,1888,,1,1,1,?,0.05448825167540282
Josiah_Stamp,1880,,1,1,1,?,0.05448825167540282
Will_Cuppy,1884,,1,1,1,?,0.05448825167540282
Eric_Coates,1886,,1,1,1,?,0.05448825167540282
Lascelles_Abercrombie,1881,,1,1,1,?,0.05448825167540282
Hannes_Kolehmainen,1889,,1,1,1,?,0.05448825167540282
Victor_Goldschmidt,1888,,1,1,1,?,0.05448825167540282
Karl_Valentin,1882,,1,1,1,?,0.05448825167540282
Georges_Mandel,1885,,1,1,1,?,0.05448825167540282
Sophie_Treadwell,1885,,1,1,1,?,0.05448825167540282
Abe_Attell,1883,,1,1,1,?,0.05448825167540282
Franklin_Pierce_Adams,1881,,1,1,1,?,0.05448825167540282
Günther_Quandt,1881,,1,1,1,?,0.05448825167540282
Percy_Kilbride,1888,,1,1,1,?,0.05448825167540282
Harpo_Marx,1888,,1,1,1,?,0.05448825167540282
Ernest_Marsden,1889,,1,1,1,?,0.05448825167540282
Ernst_Heinkel,1888,,1,1,1,?,0.05448825167540282
Maude_Fealy,1881,,1,1,1,?,0.05448825167540282
Syed_Sulaiman_Nadvi,1884,,1,1,1,?,0.05448825167540282
Nevile_Henderson,1882,,1,1,1,?,0.05448825167540282
Rembrandt_Bugatti,1884,,1,1,1,?,0.05448825167540282
Louis_Wolheim,1880,,1,1,1,?,0.05448825167540282
Luiza_Zavloschi,1883,,1,1,1,?,0.05448825167540282
