link,year,disambiguation,length,pageviews,revisions,title,score
Adolf_Hitler,1889,False,1284776,128549,5807,Adolf Hitler,0.8944996938934459
Charlie_Chaplin,1889,False,634743,65327,2456,Charlie Chaplin,0.8315573700048537
Pablo_Picasso,1881,False,342599,78419,2249,Pablo Picasso,0.8210647289847174
Benito_Mussolini,1883,False,622517,29220,2133,Benito Mussolini,0.8041598493363361
Le_Corbusier,1887,False,423848,30648,2106,Le Corbusier,0.7982507975159541
Martin_Heidegger,1889,False,676360,11348,3995,Martin Heidegger,0.7978402544368346
Guillaume_Apollinaire,1880,False,187622,43903,1881,Guillaume Apollinaire,0.7880746698132629
Franklin_D._Roosevelt,1882,False,584876,31040,1351,Franklin Delano Roosevelt,0.7871011005681248
John_Maynard_Keynes,1883,False,439909,13371,2219,John Maynard Keynes,0.7766266823781913
Mustafa_Kemal_Atatürk,1881,False,342378,17168,1768,Mustafa Kemal Atatürk,0.7717945368884099
Coco_Chanel,1883,False,216348,28388,1446,Coco Chanel,0.7698887917806309
Jean_Cocteau,1889,False,241154,23552,1398,Jean Cocteau,0.7656949272240695
Pierre_Laval,1883,False,563913,13238,1434,Pierre Laval,0.7647563687792235
Sacha_Guitry,1885,False,238602,32230,1103,Sacha Guitry,0.76436521832361
Marc_Chagall,1887,False,181238,19687,1302,Marc Chagall,0.753044558876358
Marcel_Duchamp,1887,False,270758,13451,1381,Marcel Duchamp,0.7517637410484433
Georges_Braque,1882,False,446999,8593,1407,Georges Braque,0.7471810308366188
Franz_Kafka,1883,False,191604,16238,1190,Franz Kafka,0.74549909975242
Stefan_Zweig,1881,False,188040,18552,1004,Stefan Zweig,0.7422426889719316
Harry_S._Truman,1884,False,554873,14813,751,Harry S. Truman,0.7419877400104272
Blaise_Cendrars,1887,False,202543,12164,1151,Blaise Cendrars,0.7372166172800148
Igor_Stravinsky,1882,False,158057,10615,1406,Igor Stravinsky,0.7361261536459632
René_Guénon,1886,False,466193,6541,1278,René Guénon,0.7357061823060435
Robert_Schuman,1886,False,449084,10241,865,Robert Schuman,0.7341761702798091
Maurice_Chevalier,1888,False,620417,6753,856,Maurice Chevalier,0.7259157564806532
François_Mauriac,1885,False,235236,10534,803,François Mauriac,0.7219465464491828
Fernando_Pessoa,1888,False,316841,5396,1218,Fernando Pessoa,0.7218949580015674
Jean_de_Lattre_de_Tassigny,1889,False,285935,6833,1031,Jean de Lattre de Tassigny,0.7218216512456882
George_Patton,1885,False,423002,7952,757,George Patton,0.7205432035925075
Pope_John_XXIII,1881,False,293568,6734,972,Jean XXIII,0.7196184876674504
Gaston_Bachelard,1884,False,243381,7975,867,Gaston Bachelard,0.7174770954741915
Diego_Rivera,1886,False,135338,10708,861,Diego Rivera,0.7158248135337105
Wilhelm_Furtwängler,1886,False,695474,2365,1702,Wilhelm Furtwängler,0.7148443762878215
Jean_Monnet,1888,False,156983,10238,793,Jean Monnet,0.7139885255174778
António_de_Oliveira_Salazar,1889,False,184467,9649,741,António de Oliveira Salazar,0.7123920622767752
René_Coty,1882,False,225531,11932,586,René Coty,0.7118447725873439
Georges_Bernanos,1888,False,163742,8019,879,Georges Bernanos,0.7117111069969041
Edward_Hopper,1882,False,185047,10000,701,Edward Hopper,0.7112379967924486
T._E._Lawrence,1888,False,172920,11183,665,Thomas Edward Lawrence,0.7110467997810169
Chester_W._Nimitz,1885,False,563253,2102,1836,Chester Nimitz,0.7096847561839843
Ludwig_Wittgenstein,1889,False,248463,5553,935,Ludwig Wittgenstein,0.7096482203559298
Amedeo_Modigliani,1884,False,194840,9057,693,Amedeo Modigliani,0.708876136809128
Alfred_Wegener,1880,False,101231,6749,1065,Alfred Wegener,0.7052959041542716
Alexander_Fleming,1881,False,154154,9651,647,Alexander Fleming,0.7040807469379133
Roland_Garros_(aviator),1888,False,155106,8451,692,Roland Garros,0.7031876685993934
James_Joyce,1882,False,203596,6073,791,James Joyce,0.7031138477997458
Arthur_Rubinstein,1887,False,348193,2874,1237,Arthur Rubinstein,0.702328493265376
Virginia_Woolf,1882,False,163092,10104,583,Virginia Woolf,0.7020196948400821
Douglas_MacArthur,1880,False,550090,5676,553,Douglas MacArthur,0.7013175685796975
Pio_of_Pietrelcina,1887,False,181340,7738,614,Padre Pio,0.698516426987906
Joseph_Alois_Schumpeter,1883,False,126858,9572,588,Joseph Schumpeter,0.6967945267574785
Édouard_Daladier,1884,False,373101,6378,507,Édouard Daladier,0.6958450934478502
Vincent_Auriol,1884,False,267304,6923,528,Vincent Auriol,0.6951307163454322
François_Darlan,1881,False,208407,4517,761,François Darlan,0.6929783329414939
Béla_Bartók,1881,False,180495,4819,745,Béla Bartók,0.691992033119817
Alain-Fournier,1886,False,132864,4933,735,Alain-Fournier,0.6873670720494169
Niels_Bohr,1885,False,154260,6551,556,Niels Bohr,0.6873293860560629
René_Cassin,1887,False,171390,4197,750,René Cassin,0.6871596825634161
David_Ben-Gurion,1886,False,188723,4934,615,David Ben Gourion,0.6861524681349692
Helen_Keller,1880,False,132441,9220,446,Helen Keller,0.6850641802153443
Saint-John_Perse,1887,False,188963,4736,609,Saint-John Perse,0.6845630768017307
Chiang_Kai-shek,1887,False,150217,7021,445,Tchang Kaï-chek,0.6797203863081028
Kahlil_Gibran,1883,False,106999,8161,455,Gibran Khalil Gibran,0.6792796209161419
Karl_I_of_Austria,1887,False,431368,2099,676,Charles Ier (empereur d'Autriche),0.6732104718692201
Alphonse_Juin,1888,False,168962,3752,568,Alphonse Juin,0.6731301535905987
Alfonso_XIII_of_Spain,1886,False,221681,3251,566,Alphonse XIII,0.6724396789577803
Heinz_Guderian,1888,False,223398,3897,488,Heinz Guderian,0.6724255570865812
Srinivasa_Aaiyangar_Ramanujan,1887,False,164271,5012,448,Srinivasa Ramanujan,0.6719552455479694
Bernard_Montgomery,1887,False,212327,3565,454,Bernard Montgomery,0.6661120851549305
Erwin_Schrödinger,1887,False,127305,5259,410,Erwin Schrödinger,0.6658381167629642
Giorgio_de_Chirico,1888,False,193457,3582,462,Giorgio De Chirico,0.6656435029709231
Eleanor_Roosevelt,1884,False,132747,6016,364,Eleanor Roosevelt,0.6651361959279113
Erich_von_Manstein,1887,False,339646,3076,402,Erich von Manstein,0.6628973925676105
Princess_Alice_of_Battenberg,1885,False,192458,2108,675,Alice de Battenberg,0.6624997339412309
Raimu,1883,False,118560,4882,402,Raimu,0.6618683695855406
Emmy_Noether,1882,False,323147,1745,625,Emmy Noether,0.6600887512442307
Robert_Musil,1880,False,254219,2246,522,Robert Musil,0.6591688920333344
Georges_Mandel,1885,False,174163,2852,453,Georges Mandel,0.6563464880872398
Marcus_Garvey,1887,False,91919,4495,376,Marcus Garvey,0.652919681681833
Ludwig_Mies_van_der_Rohe,1886,False,105189,5007,313,Ludwig Mies van der Rohe,0.650203786981515
Ion_Antonescu,1882,False,246679,1544,579,Ion Antonescu,0.6494945105855238
Ernst_Röhm,1887,False,125683,4476,307,Ernst Röhm,0.648946378250363
Auguste_Piccard,1884,False,121129,3485,351,Auguste Piccard,0.6470101253892677
Felix_Yusupov,1887,False,160111,1736,554,Félix Ioussoupov,0.6462948283932651
Wilhelm_Keitel,1882,False,130366,3970,303,Wilhelm Keitel,0.6455823882672559
Jawaharlal_Nehru,1889,False,119231,4140,293,Jawaharlal Nehru,0.6440162837987973
Ezra_Pound,1885,False,121805,3437,325,Ezra Pound,0.6434990241205294
Melanie_Klein,1882,False,129243,2433,406,Melanie Klein,0.6429200094058652
Max_Linder,1883,False,146123,2460,382,Max Linder,0.6426029668709988
George_Enescu,1881,False,138808,1564,572,Georges Enesco,0.6417998707905385
Franz_Marc,1880,False,145322,3547,284,Franz Marc,0.641130735636558
Cecil_B._DeMille,1881,False,179675,2522,335,Cecil B. DeMille,0.6408994159317712
T._S._Eliot,1888,False,142779,2696,343,T. S. Eliot,0.6407865446903596
Clement_Attlee,1883,False,258397,1998,357,Clement Attlee,0.6407713290989421
Wilhelm_Canaris,1887,False,133314,2420,372,Wilhelm Canaris,0.6397726381279105
Roger_Martin_du_Gard,1881,False,137477,2505,348,Roger Martin du Gard,0.6386090823316498
Morihei_Ueshiba,1883,False,173045,2071,365,Morihei Ueshiba,0.6376498740087729
Edgard_Varèse,1883,False,117098,2101,403,Edgard Varèse,0.6366057358943685
Roscoe_Arbuckle,1887,False,248176,1447,430,Roscoe Arbuckle,0.6364964028070093
Erich_von_Stroheim,1885,False,123262,2618,331,Erich von Stroheim,0.6364101239968053
George_Marshall,1880,False,169354,2329,319,George Marshall (général),0.6356479286138893
Mohammad_Mosaddegh,1882,False,131939,2677,308,Mohammad Mossadegh,0.6350656892902697
Mohammad_Mosaddegh,1882,False,131939,2677,308,Mohammad Mossadegh,0.6350656892902697
"Joseph_P._Kennedy,_Sr.",1888,False,103858,3895,258,Joseph Patrick Kennedy,0.6348012121691928
Ettore_Bugatti,1881,False,119262,3178,277,Ettore Bugatti,0.6341905333290737
Isoroku_Yamamoto,1884,False,118312,2811,298,Isoroku Yamamoto,0.6336265806280494
Jacques_Maritain,1882,False,160042,2072,337,Jacques Maritain,0.6334611875068881
Jean_Arp,1886,False,107829,2789,301,Jean Arp,0.6325110505488225
Mack_Sennett,1880,False,435132,1007,433,Mack Sennett,0.6300658137613044
"William_Halsey,_Jr.",1882,False,275893,679,823,William F. Halsey,0.6299320805866134
Raymond_A._Spruance,1886,False,314177,595,927,Raymond Spruance,0.6291567899050574
Heitor_Villa-Lobos,1887,False,102470,2043,352,Heitor Villa-Lobos,0.6286446085041512
Getúlio_Vargas,1882,False,328020,1108,404,Getúlio Vargas,0.627903548373
Marthe_Richard,1889,False,112224,2456,283,Marthe Richard,0.626758907148453
Maurice_Utrillo,1883,False,84986,2868,279,Maurice Utrillo,0.6267568812396814
Karen_Blixen,1885,False,94879,3125,252,Karen Blixen,0.6264222075182916
Ernst_Ludwig_Kirchner,1880,False,128057,2770,246,Ernst Ludwig Kirchner,0.6260963054475454
Raymond_Chandler,1888,False,125076,2182,283,Raymond Chandler,0.6246795030618802
D._H._Lawrence,1885,False,98958,2094,315,D. H. Lawrence,0.6245568064997086
Alcide_De_Gasperi,1881,False,166031,1569,320,Alcide De Gasperi,0.6228920131618944
Ludwig_von_Mises,1881,False,176246,1466,331,Ludwig von Mises,0.6227092596804167
Boris_Karloff,1887,False,146028,2178,252,Boris Karloff,0.621794208580613
F._W._Murnau,1888,False,89928,2097,303,Friedrich Wilhelm Murnau,0.6217094231982934
Bela_Lugosi,1882,False,106719,2254,264,Béla Lugosi,0.6206201964043263
Ante_Pavelić,1889,False,156377,1730,276,Ante Pavelić,0.6193516764499667
Karl_Jaspers,1883,False,105983,2089,270,Karl Jaspers,0.6191804465505126
Nikolai_Ivanovich_Bukharin,1888,False,178823,1375,311,Nikolaï Boukharine,0.6183014597072435
Edwin_Hubble,1889,False,90509,1997,287,Edwin Hubble,0.6181354223827276
Walter_Gropius,1883,False,80289,3259,213,Walter Gropius,0.6177959000224691
Nadia_Boulanger,1887,False,96691,1674,307,Nadia Boulanger,0.6162320924762916
Juan_Gris,1887,False,78745,2196,267,Juan Gris,0.6160945138968493
Anna_Akhmatova,1889,False,123244,1560,297,Anna Akhmatova,0.6159165325672221
Alban_Berg,1885,False,77505,2043,269,Alban Berg,0.614029878655408
Gabriel_Marcel,1889,False,126209,1858,239,Gabriel Marcel,0.6128382072661399
José_Raúl_Capablanca,1888,False,118266,1021,407,José Raúl Capablanca,0.6126481876437911
Georgia_O'Keeffe,1887,False,101472,2300,219,Georgia O'Keeffe,0.6125506951313555
Manuel_Azaña,1880,False,118480,1491,278,Manuel Azaña,0.6113203582649583
Tojo_Hideki,1884,False,119429,1949,226,Hideki Tōjō,0.6111886250164543
Hans_Kelsen,1881,False,87041,2688,201,Hans Kelsen,0.6110791758427915
Theo_van_Doesburg,1883,False,109780,1889,231,Theo van Doesburg,0.6100851948598939
Albert_Kesselring,1885,False,353189,1513,195,Albert Kesselring,0.6096859867576367
Vidkun_Quisling,1887,False,322800,1021,269,Vidkun Quisling,0.6091194982755113
Gabriel_Voisin,1880,False,103976,1377,289,Gabriel Voisin,0.6085619338201904
Éamon_de_Valera,1882,False,109303,1717,239,Éamon de Valera,0.6085548110161539
Kurt_von_Schleicher,1882,False,121327,1574,244,Kurt von Schleicher,0.6080591643222252
Aristides_de_Sousa_Mendes,1885,False,122975,972,366,Aristides de Sousa Mendes,0.607620781557986
August_Macke,1887,False,83858,1984,221,August Macke,0.6060756653438485
Douglas_Fairbanks,1883,False,100392,2071,200,Douglas Fairbanks,0.6054000220482314
Crown_Prince_Wilhelm_of_Germany,1882,False,79173,2864,175,Guillaume de Prusse,0.6051898432261377
George_Mallory,1886,False,81467,3229,162,George Mallory,0.6050925940768703
Paul_Ramadier,1888,False,223102,1348,209,Paul Ramadier,0.6039377085199096
André_Marty,1886,False,135799,1142,275,André Marty,0.6038105871365832
Oswald_Spengler,1880,False,116902,1572,220,Oswald Spengler,0.6032228893689732
Tod_Browning,1880,False,119210,1182,271,Tod Browning,0.6027697706756463
Alexander_Kerensky,1881,False,90900,960,346,Alexandre Kerenski,0.6012587661617042
Anton_Webern,1883,False,80735,1462,248,Anton Webern,0.6010698879079637
Eugene_O'Neill,1888,False,109476,1362,237,Eugene O'Neill,0.600971278627668
Arnold_J._Toynbee,1889,False,120431,1165,258,Arnold Joseph Toynbee,0.6004834819649276
Oskar_Kokoschka,1886,False,87859,1796,204,Oskar Kokoschka,0.6003422812645781
Sergey_Kirov,1886,False,113866,1214,243,Sergueï Kirov,0.598759304269071
Léon_Noël,1888,False,161268,678,376,Léon Noël (homme politique),0.5984414090241961
Nikos_Kazantzakis,1883,False,107922,1418,216,Níkos Kazantzákis,0.59823304579349
Georg_Trakl,1887,False,184858,1021,239,Georg Trakl,0.5981151085989093
Wilhelmina_of_the_Netherlands,1880,False,118148,972,284,Wilhelmine (reine des Pays-Bas),0.5977897044840327
Edvard_Beneš,1884,False,106023,1039,276,Edvard Beneš,0.5976426397165019
İsmet_İnönü,1884,False,139753,1060,243,İsmet İnönü,0.5967626669900735
Clementine_Churchill,1885,False,79767,2722,149,Clementine Churchill,0.5963658989540574
Faisal_I_of_Iraq,1885,False,71853,1820,192,Fayçal Ier (roi d'Irak),0.5954373264940205
Julian_Huxley,1887,False,147264,1122,219,Julian Huxley,0.5950770010512011
André_François-Poncet,1887,False,169347,1150,206,André François-Poncet,0.5949785606283277
W._C._Fields,1880,False,110582,1155,219,W. C. Fields,0.5925626410083256
Günther_von_Kluge,1882,False,147021,1005,223,Günther von Kluge,0.5921154625078463
Ludwig_Beck,1880,False,106094,1207,204,Ludwig Beck,0.5905451758121489
Frank_Jack_Fletcher,1885,False,181422,388,583,Frank J. Fletcher,0.5902847815820115
Kliment_Voroshilov,1881,False,116326,1125,199,Kliment Vorochilov,0.5883765702991532
P._G._Wodehouse,1881,False,114675,1007,214,Pelham Grenville Wodehouse,0.5875584831400488
Władysław_Sikorski,1881,False,124780,688,295,Władysław Sikorski,0.5874224945697181
José_Ortega_y_Gasset,1883,False,118391,1163,182,José Ortega y Gasset,0.5858788842888223
Marcel_Dupré,1886,False,103074,699,291,Marcel Dupré,0.5852191365269472
Alexander_I_of_Yugoslavia,1888,False,124545,819,235,Alexandre Ier (roi de Yougoslavie),0.5851973467498883
Max_Born,1882,False,106576,1085,191,Max Born,0.5844392087673183
Gabriela_Mistral,1889,False,111288,1017,193,Gabriela Mistral,0.5832931710105377
Lead_Belly,1888,False,90905,1119,187,Leadbelly,0.5825977699920164
Zoltán_Kodály,1882,False,80799,1164,185,Zoltán Kodály,0.5819211970117523
Karol_Szymanowski,1882,False,88352,853,225,Karol Szymanowski,0.5807768108528855
Anna_Pavlova,1881,False,68388,1830,140,Anna Pavlova (danseuse),0.5807505743259127
Victoria_Eugenie_of_Battenberg,1887,False,98552,872,213,Victoire-Eugénie de Battenberg,0.5807105929162152
Chūichi_Nagumo,1887,False,143612,467,359,Chūichi Nagumo,0.5806550559458404
"Lon_Chaney,_Sr.",1883,False,123985,847,202,Lon Chaney,0.580321758081176
Gustaf_VI_Adolf_of_Sweden,1882,False,124963,896,189,Gustave VI Adolphe,0.579599222627263
Jun'ichirō_Tanizaki,1886,False,96115,1048,180,Jun'ichirō Tanizaki,0.5795900918333547
Otto_Frank,1889,False,76332,2217,119,Otto Frank,0.579471301538193
Karl_Barth,1886,False,95704,921,199,Karl Barth,0.5794678985237143
Max_Beckmann,1884,False,95609,1140,168,Max Beckmann,0.5792454128854027
Enoch_L._Johnson,1883,False,83404,1914,124,Enoch L. Johnson,0.5787009857217804
John_Logie_Baird,1888,False,73821,1665,137,John Logie Baird,0.5780939726589716
Rodolfo_Graziani,1882,False,169999,779,187,Rodolfo Graziani,0.577849316549553
Louis_St._Laurent,1882,False,99937,713,232,Louis St-Laurent,0.577202825029852
Gerrit_Rietveld,1888,False,98013,1606,127,Gerrit Rietveld,0.5769801629713758
Avery_Brundage,1887,False,351760,728,157,Avery Brundage,0.5755176382320364
Rudolf_Bultmann,1884,False,132538,547,264,Rudolf Bultmann,0.5754585040477831
Claude_Rains,1889,False,84275,1052,167,Claude Rains,0.5749424574025315
Sigrid_Undset,1882,False,167208,590,224,Sigrid Undset,0.5748132092346302
Edward_Bach,1886,False,77649,745,226,Edward Bach,0.5746917485368134
Pascin,1885,False,106948,704,215,Jules Pascin,0.5746393886652543
Emil_Jannings,1884,False,111344,690,216,Emil Jannings,0.5745744494609453
Jim_Thorpe,1887,False,152552,609,215,Jim Thorpe,0.5734209470407282
Victor_Fleming,1889,False,96009,1083,147,Victor Fleming,0.5718653285752404
Panait_Istrati,1884,False,85009,882,177,Panaït Istrati,0.5718291312023636
Sinclair_Lewis,1885,False,124370,737,184,Sinclair Lewis,0.5718049130089883
Juan_Ramón_Jiménez,1881,False,130112,728,183,Juan Ramón Jiménez,0.571664764165337
Katherine_Mansfield,1888,False,65146,1279,142,Katherine Mansfield,0.5706073273697352
John_Foster_Dulles,1888,False,152773,1030,131,John Foster Dulles,0.5703403817205762
Anton_Drexler,1884,False,67818,1417,129,Anton Drexler,0.5696900735894947
Max_Steiner,1888,False,128402,519,239,Max Steiner,0.5694875897842888
Georgi_Dimitrov,1882,False,134366,696,177,Georgi Mikhailov Dimitrov,0.5691026105182396
Allan_Dwan,1885,False,151592,449,263,Allan Dwan,0.5690723857463493
Arthur_Eddington,1882,False,93241,723,188,Arthur Eddington,0.5687006194318649
Frank_Nitti,1886,False,68760,1859,104,Frank Nitti,0.5668482465503104
Henry_A._Wallace,1888,False,131348,781,152,Henry Wallace,0.5664053373499925
Otto_Heinrich_Warburg,1883,False,90172,1063,128,Otto Heinrich Warburg,0.5643366473520297
Aleksei_Nikolaevich_Tolstoi,1883,False,114026,568,196,Alexis Nikolaïevitch Tolstoï,0.5640925858387911
Igor_Sikorsky,1889,False,74439,832,159,Igor Sikorsky,0.5638859056983018
Rembrandt_Bugatti,1884,False,68676,910,149,Rembrandt Bugatti,0.563030568922809
Heinrich_Brüning,1885,False,99852,733,157,Heinrich Brüning,0.5626049479062067
Victor_McLaglen,1886,False,107085,861,136,Victor McLaglen,0.5624777872959829
Arnold_Rothstein,1882,False,69422,1876,94,Arnold Rothstein,0.5620476849888145
Paul_Hausser,1880,False,76802,1035,129,Paul Hausser,0.5620041172435883
John_Barrymore,1882,False,75073,1105,122,John Barrymore,0.5611444023794355
Robert_H._Goddard,1882,False,94371,521,205,Robert Goddard (physicien),0.5605023742892594
Louis_Charles_Breguet,1880,False,70767,818,150,Louis Charles Breguet,0.5602869328076245
Walther_von_Brauchitsch,1881,False,135159,1105,104,Walther von Brauchitsch,0.5601590131762016
Fedor_von_Bock,1880,False,97233,1061,114,Fedor von Bock,0.5597669568073917
Jacques_Majorelle,1886,False,72843,1569,97,Jacques Majorelle,0.5595599403707235
Carl_von_Ossietzky,1889,False,109644,693,147,Carl von Ossietzky,0.5589966528430109
Thomas_C._Kinkaid,1888,False,197715,210,519,Thomas C. Kinkaid,0.5586930801807869
Raymonde_de_Laroche,1882,False,59246,523,225,Élise Deroche,0.5585674586401677
Jean_Decoux,1884,False,94378,460,216,Jean Decoux,0.5577569024660104
Hugh_Dowding,1882,False,122614,494,186,Hugh Dowding,0.5577289294742807
Jean_Patou,1880,False,77118,1216,106,Jean Patou,0.5576031820461546
Ernst_Hanfstaengl,1887,False,82166,1366,97,Ernst Hanfstaengl,0.5572199468061222
Carlo_Carrà,1881,False,63353,747,152,Carlo Carrà,0.5565772375264947
Ernst_Thälmann,1886,False,88790,649,154,Ernst Thälmann,0.556369243932984
Irving_Berlin,1888,False,79334,831,131,Irving Berlin,0.5562957609964225
Henri_Coandă,1886,False,80554,816,132,Henri Coandă,0.5562291796340633
Karl_von_Frisch,1886,False,175699,657,127,Karl von Frisch,0.5558087232871692
Otto_Klemperer,1885,False,70194,709,150,Otto Klemperer,0.5555343244832623
John_Reed_(journalist),1887,False,85991,749,136,John Silas Reed,0.5555252278889892
Ernest_Bloch,1880,False,70781,634,164,Ernest Bloch,0.5555176864961546
Paul_Ludwig_Ewald_von_Kleist,1881,False,86541,668,145,Ewald von Kleist (Generalfeldmarschall),0.5545511103342783
Jozef_Tiso,1887,False,77964,667,147,Jozef Tiso,0.5538861405050646
Bronisław_Malinowski,1884,False,87263,1904,76,Bronisław Malinowski,0.5537320584146508
Wallace_Beery,1885,False,164501,541,142,Wallace Beery,0.5532362479271437
Johnny_Torrio,1882,False,53890,1479,93,Johnny Torrio,0.5522571321424847
Henri_Fabre,1882,False,64027,508,190,Henri Fabre (ingénieur),0.5522456688373674
Theda_Bara,1885,False,80524,636,145,Theda Bara,0.5520882634523486
Robert_J._Flaherty,1884,False,82149,600,150,Robert Flaherty,0.5517323764148276
Chandrasekhara_Venkata_Raman,1888,False,105717,436,186,Chandrashekhara Venkata Râman,0.5514416159993555
Jisaburō_Ozawa,1886,False,167174,191,492,Jisaburō Ozawa,0.5508067147144232
"John_S._McCain,_Sr.",1884,False,124228,222,383,"John S. McCain, Sr.",0.5482406535408644
Amadeo_Bordiga,1889,False,98979,446,166,Amadeo Bordiga,0.5472458022094622
Shmuel_Yosef_Agnon,1888,False,107692,425,167,Samuel Joseph Agnon,0.5465756712123738
Adolphe_Pégoud,1889,False,78200,529,149,Adolphe Pégoud,0.5465487343422023
Lothar_von_Arnauld_de_la_Perière,1886,False,75818,546,146,Lothar von Arnauld de La Perière,0.5464812438959586
"Archibald_Wavell,_1st_Earl_Wavell",1883,False,101909,413,174,Archibald Wavell,0.5464780219552324
H._L._Mencken,1880,False,90999,634,123,H. L. Mencken,0.5463431917475882
Umberto_Nobile,1885,False,88067,581,131,Umberto Nobile,0.5457714673221571
Dale_Carnegie,1888,False,57161,2628,63,Dale Carnegie,0.5457459917463712
Al_Jolson,1886,False,67372,622,133,Al Jolson,0.5457071237746666
Robert_Esnault-Pelterie,1881,False,73636,581,137,Robert Esnault-Pelterie,0.5456684043030825
Álvaro_Obregón,1880,False,101992,422,166,Álvaro Obregón,0.5455035883142438
Hermann_Hoth,1885,False,88789,699,113,Hermann Hoth,0.5454962542476842
Leopold_Stokowski,1882,False,79806,676,118,Leopold Stokowski,0.5451806192379874
Hermann_Broch,1886,False,67453,780,109,Hermann Broch,0.5442517227800975
A._A._Milne,1882,False,95305,601,120,Alan Alexander Milne,0.5439933169240425
Gerald_Gardner_(Wiccan),1884,False,61503,585,137,Gerald Gardner,0.5438500227306328
Conrad_Hilton,1887,False,48827,2491,63,Conrad Hilton,0.5426892325520338
Alfonso_de_Orleans_y_Borbón,1886,False,102101,257,270,Alphonse d'Orléans (1886-1975),0.5423460334591461
Frank_Lloyd,1886,False,125338,294,212,Frank Lloyd,0.5422277170814154
Takeo_Kurita,1889,False,148694,179,421,Takeo Kurita,0.5421792194023675
Irving_Langmuir,1881,False,103546,433,147,Irving Langmuir,0.5418629963753442
Han_van_Meegeren,1889,False,91669,616,113,Han van Meegeren,0.5417506771009374
Paul_Lukas,1887,False,125791,406,148,Paul Lukas,0.5417424160790847
Günther_Quandt,1881,False,90694,913,87,Günther Quandt,0.5415129354922091
Maurice_Boyau,1888,False,233525,302,170,Maurice Boyau,0.5413610004145998
Tom_Mix,1880,False,191317,427,126,Tom Mix,0.5411049168757085
Edward_Weston,1886,False,72444,609,119,Edward Weston,0.5410840313731413
Louis_B._Mayer,1885,False,66141,709,109,Louis B. Mayer,0.5410685909553439
Ernest_Ansermet,1883,False,74963,507,136,Ernest Ansermet,0.5408939142898799
Franz_Halder,1884,False,106209,696,98,Franz Halder,0.540717366064948
Richmond_K._Turner,1885,False,207154,121,763,Richmond K. Turner,0.5387726256673835
Hedda_Hopper,1885,False,91656,681,98,Hedda Hopper,0.5384949385850706
Georgios_Papandreou,1888,False,65580,466,142,Geórgios Papandréou (1888-1968),0.5382001415000333
Wacław_Sierpiński,1882,False,64528,533,127,Wacław Sierpiński,0.5381176824563547
Donald_Crisp,1882,False,143408,335,155,Donald Crisp,0.5374614763492608
Semyon_Budyonny,1883,False,76166,574,109,Semion Boudienny,0.5358595077033922
Theodor_Heuss,1884,False,101151,469,119,Theodor Heuss,0.5357978542025382
Werner_von_Fritsch,1880,False,94698,540,107,Werner von Fritsch,0.5353225032770801
Jaroslav_Hašek,1883,False,112830,409,127,Jaroslav Hašek,0.5347397348880428
Siegfried_Sassoon,1886,False,86751,550,106,Siegfried Sassoon,0.5346027715326874
Johannes_Blaskowitz,1883,False,91567,686,89,Johannes Blaskowitz,0.5341673984361394
Emilio_Mola,1887,False,61789,690,95,Emilio Mola,0.5332008477498063
Nobutake_Kondō,1886,False,110026,204,274,Nobutake Kondō,0.5331468401475407
Willis_Augustus_Lee,1888,False,161060,140,462,Willis Augustus Lee,0.5326393243819527
"E._F._L._Wood,_1st_Earl_of_Halifax",1881,False,104313,520,100,Edward Frederick Lindley Wood,0.53202782945916
Bess_Truman,1885,False,69801,731,86,Bess Truman,0.5315856119834247
Gaby_Deslys,1881,False,91457,323,153,Gaby Deslys,0.5310539353312725
Henri_Dentz,1881,False,62735,521,109,Henri Dentz,0.5305621995125421
Luisa_Casati,1881,False,84541,464,110,Luisa Casati,0.5302217442636811
St_John_Philby,1885,False,87939,491,104,St. John Philby,0.5301148835259849
Velimir_Khlebnikov,1885,False,107239,308,150,Velimir Khlebnikov,0.5300508533632066
Ty_Cobb,1886,False,67423,476,113,Ty Cobb,0.5298540869951175
Peter_Debye,1884,False,109184,325,140,Peter Debye,0.5296841476457884
Lluís_Companys,1883,False,78484,442,114,Lluís Companys,0.5292896116717738
Robert_Moses,1888,False,115012,375,119,Robert Moses,0.5290728351169488
Paul_Tillich,1886,False,116786,611,82,Paul Tillich,0.5290648476102958
Will_Durant,1885,False,78285,609,89,Will Durant,0.5288385167884221
Sessue_Hayakawa,1889,False,84120,490,102,Sessue Hayakawa,0.528734074254856
Rose_Wilder_Lane,1886,False,63161,1381,59,Rose Wilder Lane,0.5280953874862817
Violet_Jessop,1887,False,91330,670,79,Violet Constance Jessop,0.5276384519444229
"Joe_""King""_Oliver",1885,False,51424,540,104,King Oliver,0.5274980731791372
Hubert_Latham,1883,False,72443,394,121,Hubert Latham,0.5268643866989975
Ernst_Busch_(field_marshal),1885,False,93224,515,92,Ernst Busch,0.5267910132507546
Francesco_Baracca,1888,False,77167,541,91,Francesco Baracca,0.5259610691903499
Walter_Huston,1883,False,79143,486,97,Walter Huston,0.5256037088847071
Sylvia_Beach,1887,False,59538,488,102,Sylvia Beach,0.5249502733368235
Friedrich_Olbricht,1888,False,68054,716,76,Friedrich Olbricht,0.5246684339198165
Edward_Rydz-Śmigły,1886,False,93293,297,136,Edward Rydz-Śmigły,0.523515464925309
Alexander_Patch,1889,False,87609,336,121,Alexander Patch,0.5230015457686408
Arthur_Percival,1887,False,135012,253,141,Arthur Ernest Percival,0.5220224356458395
Hugo_Sperrle,1885,False,89368,499,84,Hugo Sperrle,0.5211333618660259
Max_Brod,1884,False,67578,479,92,Max Brod,0.5211237482498142
Stanisław_Ignacy_Witkiewicz,1885,False,72825,414,101,Stanisław Ignacy Witkiewicz,0.5210925340240825
Joaquín_Turina,1882,False,80710,386,104,Joaquín Turina,0.5209503268077461
Erle_Stanley_Gardner,1889,False,144907,258,131,Erle Stanley Gardner,0.5206713179325713
Nikolaos_Plastiras,1883,False,197028,126,338,Nikólaos Plastíras,0.5206340953550714
William_Boeing,1881,False,51860,683,75,William Edward Boeing,0.5197276432694393
Petru_Groza,1884,False,104645,220,165,Petru Groza,0.5194698584815213
Joe_Masseria,1886,False,59582,1165,55,Joe Masseria,0.5192867218647833
Evelyn_Nesbit,1884,False,87211,512,77,Evelyn Nesbit,0.5176004793251652
Rube_Goldberg,1883,False,85492,505,78,Rube Goldberg,0.5175839924244454
Joseph_Pilates,1883,False,56505,1371,50,Joseph Pilates,0.5171626261542968
"Thomas_Midgley,_Jr.",1889,False,108975,349,96,Thomas Midgley Jr.,0.5168597889899157
James_Franck,1882,False,114821,278,116,James Franck,0.5167224068752442
Gottfried_Benn,1886,False,62312,391,99,Gottfried Benn,0.5166553366726611
Ernest_Bevin,1881,False,83116,448,83,Ernest Bevin,0.5163389218116986
George_de_Hevesy,1885,False,99506,226,145,George de Hevesy,0.5155276903118635
Inge_Lehmann,1888,False,63690,324,112,Inge Lehmann,0.5153160675919491
Otto_Stern,1888,False,93803,276,118,Otto Stern,0.5152072300955639
Artur_Schnabel,1882,False,60624,381,97,Artur Schnabel,0.514605013537673
Celâl_Bayar,1883,False,80444,329,101,Celâl Bayar,0.5139759562380434
Jean_Alexandre_Barré,1880,False,76610,285,116,Jean Alexandre Barré,0.5137918398338354
Harpo_Marx,1888,False,54780,677,66,Harpo Marx,0.5136890957333661
Prince_Naruhiko_Higashikuni,1887,False,116893,293,102,Naruhiko Higashikuni,0.5136560110306522
Arnold_Bax,1883,False,84764,239,133,Arnold Bax,0.51311382714513
Joseph_Trumpeldor,1880,False,77581,362,92,Joseph Trumpeldor,0.5130380587887045
Olave_Baden-Powell,1889,False,61010,438,84,Olave Baden-Powell,0.5130336364148995
Hans-Jürgen_von_Arnim,1889,False,79998,397,84,Hans-Jürgen von Arnim,0.5124787370772924
Alvin_Cullum_York,1887,False,97010,288,105,Alvin Cullum York,0.512467693346862
Hermann_Staudinger,1881,False,91460,279,109,Hermann Staudinger,0.5122226421556412
Alice_Paul,1885,False,104885,363,83,Alice Paul,0.5114521049152839
Vittorio_Pozzo,1886,False,117084,266,103,Vittorio Pozzo,0.5103934552704636
Corrado_Gini,1884,False,72703,254,120,Corrado Gini,0.5101523073886696
Maximilian_von_Weichs,1881,False,89835,343,87,Maximilian von Weichs,0.510120974958593
Jerome_Kern,1885,False,63702,386,85,Jerome Kern,0.5098014566388543
Yitzhak_Ben-Zvi,1884,False,60473,359,91,Yitzhak Ben-Zvi,0.5097842853238101
Selman_Waksman,1888,False,108356,305,90,Selman Waksman,0.5091396758528492
Milan_Rastislav_Štefánik,1880,False,85746,302,95,Milan Rastislav Štefánik,0.508903503053537
Giovanni_Papini,1881,False,66896,393,81,Giovanni Papini,0.5087326438849747
Giovanni_Gronchi,1887,False,109010,172,163,Giovanni Gronchi,0.5086460816727949
Henry_H._Arnold,1886,False,70100,353,86,Henry Harley Arnold,0.5082188359416665
Hans_Geiger,1882,False,70011,360,84,Hans Geiger,0.5078435425579593
Edgar_Adrian,1889,False,107848,205,128,Edgar Douglas Adrian,0.5076409610293989
Louis_Durey,1888,False,63908,356,86,Louis Durey,0.5075945670597989
Patriarch_Athenagoras_I_of_Constantinople,1886,False,75090,294,97,Athénagoras Ier de Constantinople,0.507517466847681
Marie_Vassilieff,1884,False,65258,423,75,Marie Vassilieff,0.5073726308075339
Vajiravudh,1880,False,57036,371,85,Rama VI,0.5073429759006098
Marie-Louise_Meilleur,1880,False,43511,935,52,Marie-Louise Meilleur,0.507270593439625
Victor_Francis_Hess,1883,False,89475,225,119,Victor Franz Hess,0.5070120184441834
Shoeless_Joe_Jackson,1887,False,45410,751,57,Joe Jackson (baseball),0.5069841848867622
Joseph_Bech,1887,False,63274,366,83,Joseph Bech,0.5068750208068115
Roderick_McMahon,1882,False,37697,894,54,Jess McMahon,0.5066535808624457
Ed_Wynn,1886,False,51152,517,68,Ed Wynn,0.5065241628046746
Joseph_Stilwell,1883,False,74598,295,94,Joseph Stilwell,0.5062672342003417
Percy_Williams_Bridgman,1882,False,106715,230,108,Percy Williams Bridgman,0.5057638115400998
Tomoyuki_Yamashita,1885,False,61118,643,57,Tomoyuki Yamashita,0.505757574291303
Paul_Wittgenstein,1887,False,58554,470,69,Paul Wittgenstein,0.5056848119138615
Fan_S._Noli,1882,False,85399,264,99,Fan Noli,0.5055727595444784
James_F._Byrnes,1882,False,91809,293,87,James F. Byrnes,0.5046909876928968
Gunichi_Mikawa,1888,False,151177,91,398,Gunichi Mikawa,0.5044791119624938
Paul_Ehrenfest,1880,False,73942,376,74,Paul Ehrenfest,0.5040988810556806
Malcolm_Campbell,1885,False,92300,304,83,Malcolm Campbell,0.5040217487882032
Edwin_Fischer,1886,False,58608,307,91,Edwin Fischer,0.5039739365277089
Jan_Masaryk,1886,False,69013,343,80,Jan Masaryk,0.5038739409407451
Ichirō_Hatoyama,1883,False,267365,182,108,Ichirō Hatoyama,0.50372614115378
Billie_Burke,1885,False,66928,360,77,Billie Burke,0.5035011159932734
Billie_Burke,1884,False,66928,360,77,Billie Burke,0.5035011159932734
Rupert_Brooke,1887,False,68146,416,68,Rupert Brooke,0.5026297264869944
Hannes_Kolehmainen,1889,False,101175,208,111,Hannes Kolehmainen,0.502295817141122
Georg_von_Küchler,1881,False,70830,381,71,Georg von Küchler,0.5021962083093933
Florence_Lawrence,1886,False,159371,169,123,Florence Lawrence,0.5012809378291044
Clinton_Davisson,1881,False,88867,194,120,Clinton Joseph Davisson,0.5011824152554561
Hans_Richter_(artist),1888,False,74860,433,63,Hans Richter (artiste),0.5010826921887392
Alfredo_Casella,1883,False,69041,306,82,Alfredo Casella,0.5009960355471698
Rebecca_Helferich_Clarke,1886,False,105660,196,113,Rebecca Clarke,0.5009210416814143
Raoul_Lufbery,1885,False,49635,326,83,Raoul Gervais Lufbery,0.5004743984434569
Sax_Rohmer,1883,False,76532,225,103,Sax Rohmer,0.4999696075825131
Kurt_Atterberg,1887,False,76527,204,114,Kurt Atterberg,0.49995356075880565
Ernst_Robert_Curtius,1886,False,57509,255,96,Ernst Robert Curtius,0.49921682375384946
Robert_Robinson_(organic_chemist),1886,False,100274,190,112,Robert Robinson,0.4988278937052836
Jean_Hersholt,1886,False,102996,186,112,Jean Hersholt,0.49817721428561584
Harlow_Shapley,1885,False,62760,215,108,Harlow Shapley,0.4981280875971646
Anthony_Wilding,1883,False,188298,139,139,Anthony Wilding,0.49810121662639356
Lytton_Strachey,1880,False,74668,297,76,Lytton Strachey,0.4973363240898183
Leon_Schlesinger,1884,False,143554,202,91,Leon Schlesinger,0.4962619323627041
Barry_Fitzgerald,1888,False,80403,290,74,Barry Fitzgerald,0.4959884918678987
Olaf_Stapledon,1886,False,72511,183,117,Olaf Stapledon,0.49593675459328335
Ma_Rainey,1886,False,54119,387,65,Ma Rainey,0.49592093207611226
Harry_Nyquist,1889,False,49143,276,85,Harry Nyquist,0.49554294128734794
"Simon_Bolivar_Buckner,_Jr.",1886,False,55429,337,70,"Simon Bolivar Buckner, Jr.",0.49510732624691833
Prince_Yasuhiko_Asaka,1887,False,62072,302,74,Yasuhiko Asaka,0.49498847697829773
Thomas_Hart_Benton_(painter),1889,False,62693,394,61,Thomas Hart Benton (peintre),0.49484495252973754
Ernst_Kretschmer,1888,False,63650,334,67,Ernst Kretschmer,0.49411200298763336
Frits_Zernike,1888,False,101999,198,94,Frederik Zernike,0.4938678262546172
Troy_H._Middleton,1889,False,119286,168,108,Troy Middleton,0.49377332695556303
Leopold_Ružička,1887,False,112183,155,120,Lavoslav Ružička,0.493620447619722
Carlo_Michelstaedter,1887,False,80789,205,95,Carlo Michelstaedter,0.49360705875842853
Arnold_Zweig,1887,False,57440,238,89,Arnold Zweig,0.49355000950864425
Jorge_Chávez,1887,False,55951,226,94,Jorge Chávez Dartnell,0.4935441470313581
Karl_Valentin,1882,False,64228,429,56,Karl Valentin,0.49345586706438044
Claude_Auchinleck,1884,False,75162,297,69,Claude Auchinleck,0.4930355560084098
Edith_Bratt,1889,False,70660,265,76,Edith Tolkien,0.4927748061980754
Claude_Dornier,1884,False,60559,347,64,Claudius Dornier,0.49274684179419787
John_Boyd_Orr,1880,False,91598,193,95,John Boyd Orr,0.49231778028677897
Chico_Marx,1887,False,52500,420,57,Chico Marx,0.49177186761189134
Paul_Legentilhomme,1884,False,67457,144,142,Paul Louis Victor Marie Legentilhomme,0.49162473554485525
Kid_Ory,1886,False,54669,345,64,Kid Ory,0.49158014436124153
Boris_Shaposhnikov,1882,False,71085,236,80,Boris Chapochnikov,0.490802367768503
Marion_Lorne,1883,False,48601,842,40,Marion Lorne,0.4906733018337096
Chester_Conklin,1886,False,128960,161,102,Chester Conklin,0.4904434948231123
Pearl_White,1889,False,110534,226,75,Pearl White,0.4902928140148762
Vasily_Blyukher,1889,False,60495,321,64,Vassili Blücher,0.4901707581732529
Guccio_Gucci,1881,False,45554,752,42,Guccio Gucci,0.4901018138127243
Beno_Gutenberg,1889,False,58987,302,67,Beno Gutenberg,0.4900093148690106
Archibald_Hill,1886,False,109869,160,105,Archibald Vivian Hill,0.4899323822041665
Archibald_Hill,1886,False,109869,160,105,Archibald Vivian Hill,0.4899323822041665
Gladys_Cooper,1888,False,62605,241,78,Gladys Cooper,0.4893289304191134
Otto_Bauer,1881,False,70439,218,83,Otto Bauer,0.4892779264804906
Hans_Wilsdorf,1881,False,52733,593,45,Hans Wilsdorf,0.48924999205442365
Sveinn_Björnsson,1881,False,64326,222,83,Sveinn Björnsson,0.489133439777096
Agustín_Pío_Barrios,1885,False,56946,437,52,Agustín Barrios Mangoré,0.4890815804481401
Henry_Moseley,1887,False,80376,214,80,Henry Moseley,0.48822510606619884
Frans_Eemil_Sillanpää,1888,False,90951,127,139,Frans Emil Sillanpää,0.487830480388402
Ramón_Grau,1882,False,67037,279,66,Ramón Grau San Martín,0.4877963154176241
Mills_Brothers,1889,False,61690,250,73,The Mills Brothers,0.4876677740327211
"Philip_Noel-Baker,_Baron_Noel-Baker",1889,False,127943,204,75,Philip J. Noel-Baker,0.4875952220933885
Ivan_Meštrović,1883,False,65858,256,70,Ivan Meštrović,0.48727058541660245
Alexander_Vandegrift,1887,False,133913,182,81,Alexander Vandegrift,0.4867079928869759
Vicki_Baum,1888,False,53144,307,62,Vicki Baum,0.4859821760260103
Sarvepalli_Radhakrishnan,1888,False,73353,161,103,Sarvepalli Radhakrishnan,0.4859741126172613
Robert_A._Taft,1889,False,77898,232,71,Robert Taft,0.4858509080643494
"George_""Gabby""_Hayes",1885,False,102356,146,106,Gabby Hayes,0.4857190245363562
Florence_La_Badie,1888,False,96725,150,104,Florence LaBadie,0.48571679035635146
Asta_Nielsen,1881,False,55707,357,55,Asta Nielsen,0.48552668805271076
Manne_Siegbahn,1886,False,89403,150,105,Karl Manne Georg Siegbahn,0.485396936569822
Robert_Hichens_(sailor),1882,False,88904,470,43,Robert Hichens,0.4849827122334224
Seán_O'Casey,1880,False,59565,225,75,Seán O'Casey,0.4846731423514666
James_Somerville,1882,False,54960,179,95,James Fownes Somerville,0.4846536038561532
Warner_Baxter,1889,False,83345,228,69,Warner Baxter,0.4845462790313516
Fred_Quimby,1886,False,108483,310,52,Fred Quimby,0.4840456647042158
Smedley_Butler,1881,False,76621,274,60,Smedley Butler,0.48394332369087145
Mamie_Smith,1883,False,46987,258,69,Mamie Smith,0.48374777788825213
Shigeyoshi_Inoue,1889,False,80666,111,153,Shigeyoshi Inoue,0.4834575622566065
Austin_Osman_Spare,1886,False,60379,308,57,Austin Osman Spare,0.48328074917227487
Paul_Karrer,1889,False,93999,150,98,Paul Karrer,0.4832637324464628
Jacob_Epstein,1880,False,64804,301,57,Jacob Epstein,0.483166678623863
Harvey_Spencer_Lewis,1883,False,53095,276,63,Harvey Spencer Lewis,0.48313920993028775
Otto_Fritz_Meyerhof,1884,False,97874,152,95,Otto Fritz Meyerhof,0.48299576708296105
Sisavang_Vong,1885,False,49167,277,63,Sisavang Vong,0.4825393670258351
Fritz_Reiner,1888,False,66012,255,63,Fritz Reiner,0.4824044362371023
Damon_Runyon,1880,False,81461,154,96,Damon Runyon,0.48238611472546344
Gian_Francesco_Malipiero,1882,False,68655,192,79,Gian Francesco Malipiero,0.4821365375906146
Hans_Fischer,1881,False,80147,166,88,Hans Fischer,0.4820243457259952
Aleksandr_Vertinsky,1889,False,58093,160,98,Alexandre Vertinski,0.48175673775781475
Owen_Moore,1886,False,61283,156,99,Owen Moore,0.48156485512704544
Rajendra_Prasad,1884,False,64197,186,81,Rajendra Prasad,0.48132246619576496
Hasui_Kawase,1883,False,75998,200,73,Hasui Kawase,0.48129528465126103
Christian_Mortensen,1882,False,52226,233,69,Christian Mortensen,0.4811367202756741
Clara_Blandick,1880,False,81264,158,90,Clara Blandick,0.48097873615833414
George_Abbott,1887,False,72206,166,87,George Abbott,0.4806701496247902
George_Herriman,1880,False,109183,181,73,George Herriman,0.4804821687258433
James_Cruze,1884,False,147214,111,119,James Cruze,0.4801898857700826
Jonathan_Mayhew_Wainwright_IV,1883,False,69448,184,78,Jonathan Mayhew Wainwright IV,0.480060636477222
Hiroaki_Abe,1889,False,92959,91,182,Hiroaki Abe,0.4798653494963249
Alf_Landon,1887,False,70402,202,71,Alf Landon,0.47982001794499557
Angela_Hitler,1883,False,67844,1427,27,Angela Hitler,0.4797745707196801
Walter_Rudolf_Hess,1881,False,94263,180,74,Walter Rudolf Hess,0.47962946707354087
Noah_Beery,1882,False,134244,129,98,Noah Beery,0.47954904386265557
George_S._Kaufman,1889,False,125838,132,96,George S. Kaufman,0.47930194327328207
John_Edensor_Littlewood,1885,False,75506,244,59,John Edensor Littlewood,0.4790160965130052
Willem_Drees,1886,False,69343,137,104,Willem Drees,0.4789096666356277
Friedrich_Bergius,1884,False,82514,151,89,Friedrich Bergius,0.47878694015994394
Edward_Everett_Horton,1886,False,59756,175,82,Edward Everett Horton,0.4787751464429408
Roy_Chapman_Andrews,1884,False,61161,316,51,Roy Chapman Andrews,0.47876085539663765
Max_Fleischer,1883,False,61977,232,63,Max Fleischer (animateur),0.4785115066039828
Sylvia_Pankhurst,1882,False,51588,329,51,Sylvia Pankhurst,0.4784901118878244
Norman_Haworth,1883,False,83487,151,88,Walter Norman Haworth,0.478451405181676
Walton_Walker,1889,False,153505,121,100,Walton Walker,0.47842191637541015
Jinichi_Kusaka,1888,False,100599,90,168,Jinichi Kusaka,0.47761964409238306
Kuniaki_Koiso,1880,False,75135,277,52,Kuniaki Koiso,0.477244306870902
Stanley_Bruce,1883,False,381285,134,73,Stanley Bruce,0.4771310040518485
Geraldine_Farrar,1882,False,63903,155,86,Geraldine Farrar,0.47634585801013196
Marie_Brémont,1886,False,41719,418,44,Marie Brémont,0.4760540659155876
John_Curtin,1885,False,68936,186,70,John Curtin,0.4759048240795001
Theodor_Svedberg,1884,False,95746,146,83,Theodor Svedberg,0.47590453175881997
Suzanne_Duchamp,1889,False,49331,289,53,Suzanne Duchamp,0.4758336727428668
Frigyes_Riesz,1880,False,64639,208,64,Frigyes Riesz,0.47564791316458616
Cathleen_Nesbitt,1888,False,100596,156,76,Cathleen Nesbitt,0.4755321614060001
Toyoda_Soemu,1885,False,64936,188,69,Soemu Toyoda,0.4751822184567914
Ernst_Heinkel,1888,False,62369,196,67,Ernst Heinrich Heinkel,0.47513792369725527
Rómulo_Gallegos,1884,False,66523,178,72,Rómulo Gallegos,0.47508902965136535
James_Gleason,1882,False,140525,132,84,James Gleason,0.4750829380642205
Bertram_Ramsay,1883,False,57524,199,67,Bertram Ramsay,0.4749880618361658
Robert_L._Eichelberger,1886,False,277649,86,130,Robert L. Eichelberger,0.47493871153954964
Roy_Geiger,1885,False,97504,183,64,Roy Geiger,0.474318254083074
Oliver_Wallace,1887,False,93079,145,80,Oliver Wallace,0.47393903555832767
Husband_E._Kimmel,1882,False,62253,275,50,Husband E. Kimmel,0.47344494854752117
William_Joseph_Simmons,1880,False,43179,334,47,William Joseph Simmons,0.47318443968108426
Claude_Roger-Marx,1888,False,69907,139,87,Claude Roger-Marx,0.47302224265185105
Clifton_Webb,1889,False,51154,307,47,Clifton Webb,0.4721295630422054
Giles_Gilbert_Scott,1880,False,51276,218,59,Giles Gilbert Scott,0.47165307327259326
Lloyd_Fredendall,1883,False,51520,208,61,Lloyd Fredendall,0.47151525153106105
Sarah_Knauss,1880,False,47482,507,36,Sarah Knauss,0.4713530918754483
Spring_Byington,1886,False,75761,135,84,Spring Byington,0.4711280069635489
Adrian_Boult,1889,False,72544,172,66,Adrian Boult,0.47083722087349905
Archie_Hahn,1880,False,65648,125,92,Archie Hahn,0.4700015377830081
Francis_X._Bushman,1883,False,115799,128,79,Francis X. Bushman,0.4698773362303234
Władysław_Raczkiewicz,1885,False,61286,168,68,Władysław Raczkiewicz,0.46975611711198184
Beulah_Bondi,1889,False,81519,153,70,Beulah Bondi,0.46966722711149067
Jack_Hobbs,1882,False,60170,146,78,Jack Hobbs (cricket),0.4695714183000737
Paul_Leni,1885,False,51273,176,67,Paul Leni,0.46935793798710257
Michał_Sopoćko,1888,False,54740,141,82,Michał Sopoćko,0.4692523620750979
Edith_Evans,1888,False,84962,171,62,Edith Evans,0.4692193626459697
Anton_Flettner,1885,False,55389,187,62,Anton Flettner,0.46898941177994474
R._G._Collingwood,1889,False,68821,206,55,Robin G. Collingwood,0.46898892483255417
Una_O'Connor_(actress),1880,False,60450,176,64,Una O'Connor,0.46885053379354
Vincent_Massey,1887,False,50403,179,65,Vincent Massey,0.4685624618968256
Shōji_Nishimura,1889,False,99756,67,217,Shōji Nishimura,0.46849189601979685
Hugo_Schmeisser,1884,False,52449,157,72,Hugo Schmeisser,0.46810549109237537
Harry_Benjamin,1885,False,67670,167,64,Harry Benjamin,0.4678049851405911
Eurico_Gaspar_Dutra,1883,False,56723,154,71,Eurico Gaspar Dutra,0.4674585230262011
Eleazar_López_Contreras,1883,False,104308,138,70,Eleazar López Contreras,0.4674217245051429
Ugo_Cavallero,1880,False,83708,148,68,Ugo Cavallero,0.46734820061120946
Giovanni_Battista_Caproni,1886,False,60388,426,35,Giovanni Battista Caproni,0.4671460339076396
George_Bancroft_(actor),1882,False,54031,178,62,George Bancroft (acteur),0.46693780007784347
Risto_Ryti,1889,False,60244,132,81,Risto Ryti,0.46685852926225835
Tudor_Arghezi,1880,False,82993,167,60,Tudor Arghezi,0.46668862195429517
Mary_Webb,1881,False,40815,305,44,Mary Webb,0.4665134894358675
Max_Wertheimer,1880,False,61815,255,45,Max Wertheimer,0.46565614592817517
José_Mendes_Cabeçadas,1883,False,66740,203,52,Mendes Cabeçadas,0.4655999235686327
Lotte_Lehmann,1888,False,54103,155,68,Lotte Lehmann,0.4655417189530069
Thomas_Blamey,1884,False,94725,154,61,Thomas Blamey,0.46531337499556796
Tommy_Burns_(boxer),1881,False,98932,180,53,Tommy Burns,0.4653034919101959
Carl_Van_Vechten,1880,False,72855,108,94,Carl Van Vechten,0.4651332775969755
Bror_von_Blixen-Finecke,1886,False,48102,188,58,Bror von Blixen-Finecke,0.46501684437775165
Holland_Smith,1882,False,81980,153,62,Holland Smith,0.46461456097231973
George_Fitzmaurice,1885,False,90539,134,69,George Fitzmaurice,0.46451199295138124
Alfonso_López_Pumarejo,1886,False,91963,154,60,Alfonso López Pumarejo,0.4643656540109525
Aritomo_Gotō,1888,False,109378,67,179,Aritomo Gotō,0.46413936018605273
James_B._Sumner,1887,False,92293,115,80,James Batcheller Sumner,0.4639319631316889
Edward_Calvin_Kendall,1886,False,90574,140,65,Edward Calvin Kendall,0.46385335048600457
Christabel_Pankhurst,1880,False,44875,387,36,Christabel Pankhurst,0.4635236889028508
Victor_Goldschmidt,1888,False,73234,124,75,Victor Goldschmidt (chimiste),0.4628785302207258
Charles_Ruggles,1886,False,73143,152,61,Charles Ruggles,0.462744784984319
Tarsila_do_Amaral,1886,False,49809,223,48,Tarsila do Amaral,0.4625533492829567
Moroni_Olsen,1889,False,69077,119,78,Moroni Olsen,0.4621493297839804
Armand_Annet,1888,False,61708,133,70,Armand Annet,0.46168643513480395
George_Preca,1880,False,76119,100,93,Georges Preca,0.461582296436967
Louis_Wagner,1882,False,68045,115,80,Louis Wagner,0.4615004072588283
Sir_Richard_O'Connor,1889,False,46386,120,82,Richard O'Connor,0.46102236003077435
Walter_Johnson,1887,False,62215,156,59,Walter Johnson,0.4609949620762457
Giovanni_Messe,1883,False,55958,227,45,Giovanni Messe,0.4609912785824316
Willis_O'Brien,1886,False,64955,157,58,Willis O'Brien,0.46085420704709984
William_Frawley,1887,False,79334,131,66,William Frawley,0.4607262871791549
Percy_Grainger,1882,False,63359,198,48,Percy Grainger,0.4605059791539155
W._O._Bentley,1888,False,45269,227,46,Walter Owen Bentley,0.4602522045975176
Othmar_Schoeck,1886,False,58140,152,60,Othmar Schoeck,0.460153108187349
Henry_Maitland_Wilson,1881,False,55828,123,74,Henry Maitland Wilson,0.45978125127649966
Conrad_Aiken,1889,False,58003,174,53,Conrad Aiken,0.45976488269421956
Robert_L._Ghormley,1883,False,76074,86,107,Robert L. Ghormley,0.4591381004537324
Eric_Gill,1882,False,57462,213,45,Eric Gill,0.45908025306430583
Giulio_Gavotti,1882,False,61180,127,68,Giulio Gavotti,0.4585600889255924
Geoffrey_de_Havilland,1882,False,60774,221,43,Geoffrey de Havilland,0.4585222751158009
Yitzhak_HaLevi_Herzog,1888,False,47955,138,65,Yitzhak HaLevi Herzog,0.45806871973734564
Nishizō_Tsukahara,1887,False,81717,75,124,Nishizō Tsukahara,0.4574564622241764
George_David_Birkhoff,1884,False,76550,136,59,George David Birkhoff,0.4572950768619967
Josef_Frings,1887,False,88332,125,62,Joseph Frings,0.4570593609419665
Thomas_Selfridge,1882,False,48130,126,69,Thomas Etholen Selfridge,0.4568075994697965
Anita_Loos,1888,False,64578,150,55,Anita Loos,0.4567426376984945
John_Franklin_Enders,1887,False,95314,127,59,John Enders,0.4562125315945388
Volodymyr_Vynnychenko,1880,False,45565,119,72,Volodymyr Vynnytchenko,0.4556213528643527
Seán_T._O'Kelly,1882,False,52031,108,77,Seán T. O'Kelly,0.4551315803731031
Pat_Sullivan_(film_producer),1885,False,113033,137,52,Pat Sullivan,0.4550176234485075
Manuel_Prado_Ugarteche,1889,False,92443,139,52,Manuel Prado Ugarteche,0.4541052538337858
Masaharu_Homma,1887,False,66865,113,67,Masaharu Honma,0.453801590510926
Edna_May_Oliver,1883,False,58188,114,68,Edna May Oliver,0.45364217515838373
Douglass_Dumbrille,1889,False,82580,108,67,Douglass Dumbrille,0.4535009480912017
Marcel-Bruno_Gensoul,1880,False,48326,386,30,Marcel Gensoul,0.4534783435351542
B._C._Forbes,1880,False,54418,371,30,Bertie Charles Forbes,0.45339713577961105
W._T._Cosgrave,1880,False,59359,145,52,William T. Cosgrave,0.452301145285231
Döme_Sztójay,1883,False,80275,153,47,Döme Sztójay,0.45209142540670005
Suzanne_Bianchetti,1889,False,55726,146,52,Suzanne Bianchetti,0.4520524496064373
Fritz_Leiber_(Sr.),1882,False,75732,140,51,Fritz Leiber (acteur),0.45200692906809764
Elsa_Maxwell,1883,False,45561,216,40,Elsa Maxwell,0.4517314274460752
Charles_Alan_Pownall,1887,False,79792,74,105,Charles Alan Pownall,0.45141870810655316
Carl_Vinson,1883,False,99931,125,53,Carl Vinson,0.45131468597823776
Walther_Schwieger,1885,False,44216,166,48,Walther Schwieger,0.45126928235503966
Leo_Geyr_von_Schweppenburg,1886,False,62775,212,38,Leo Geyr von Schweppenburg,0.45110542451521846
Bernardo_Houssay,1887,False,100769,148,45,Bernardo Houssay,0.45049920834351265
A._Y._Jackson,1882,False,60575,244,34,A. Y. Jackson,0.44934736158510774
Jack_Holt_(actor),1888,False,80076,160,42,Jack Holt,0.448360462425073
Mary_Alden,1883,False,75536,114,56,Mary Alden,0.44784214393826327
Karl_von_Terzaghi,1883,False,66711,204,36,Karl von Terzaghi,0.4474979996420336
Leevi_Madetoja,1887,False,54690,91,76,Leevi Madetoja,0.4474547568461251
Charles_White_Whittlesey,1884,False,41391,208,38,Charles White Whittlesey,0.44709606261894275
Anna_Q._Nilsson,1888,False,50723,109,61,Anna Q. Nilsson,0.4463703434671232
Ralph_Hartley,1888,False,57797,81,84,Ralph Hartley,0.44600819712136913
Jacob_L._Devers,1887,False,48228,157,44,Jacob Devers,0.4459540723199498
Al_Christie,1881,False,240003,72,74,Al Christie,0.4456876358112767
Charles_Williams_(UK_writer),1886,False,44854,278,31,Charles Williams (écrivain britannique),0.44566147676959306
Edna_Ferber,1887,False,85512,156,40,Edna Ferber,0.4455505490650465
Gustav_Ludwig_Hertz,1887,False,137176,51,148,Gustav Hertz,0.44494332974009654
Christy_Mathewson,1880,False,56311,135,47,Christy Mathewson,0.44466049021931187
Walter_H._Schottky,1886,False,61367,99,61,Walter Schottky,0.4437957613507046
Charles_Sheeler,1883,False,58122,180,37,Charles Sheeler,0.44370845736539033
Clive_Bell,1881,False,69975,231,31,Clive Bell,0.4436438893388668
Harald_Sverdrup_(oceanographer),1888,False,58256,106,57,Harald Sverdrup,0.44357309235336073
Francisco_Canaro,1888,False,53372,136,46,Francisco Canaro,0.4435464544158566
María_Capovilla,1889,False,46239,134,47,María Capovilla,0.44281442740453747
Paul_Bernays,1888,False,57570,162,39,Paul Bernays,0.44266578331689593
Chujiro_Hayashi,1880,False,39986,125,51,Chujiro Hayashi,0.4425444882562106
Mitsuru_Ushijima,1887,False,61862,185,35,Mitsuru Ushijima,0.4422339928949018
Ben_Chifley,1885,False,65526,88,65,Ben Chifley,0.4415757803828087
Sylvanus_Morley,1883,False,50692,93,64,Sylvanus Morley,0.44145854995072753
Richard_C._Tolman,1881,False,68829,114,49,Richard Tolman,0.44145735712072226
Mary_Boland,1882,False,62710,95,59,Mary Boland,0.44087127542013116
Wilhelm_Backhaus,1884,False,47817,188,35,Wilhelm Backhaus,0.44076060572173337
Hugh_Walpole,1884,False,76519,114,47,Hugh Walpole,0.44041139817745745
Charles_Reisner,1887,False,74641,106,50,Charles Reisner,0.4399779354737341
Sybil_Thorndike,1882,False,66124,118,46,Sybil Thorndike,0.439744950046355
L._S._Lowry,1887,False,51885,313,26,Laurence Stephen Lowry,0.43973450956225724
Sara_Allgood,1880,False,67221,127,43,Sara Allgood,0.43964254499343713
Friedrich_Kellner,1885,False,66797,67,88,Friedrich Kellner,0.4393948021624419
Earle_Page,1880,False,59706,103,52,Earle Page,0.4387946770527982
Günther_Lütjens,1889,False,47303,241,29,Günther Lütjens,0.43812618601798153
Kermit_Roosevelt,1889,False,56613,245,28,Kermit Roosevelt,0.4379698251317894
Marjorie_Rambeau,1889,False,80132,106,47,Marjorie Rambeau,0.4378183406644097
Roland_Young,1887,False,59903,93,56,Roland Young,0.43754068657886536
Sara_Teasdale,1884,False,56395,139,39,Sara Teasdale,0.43707354079691263
Otto_Froitzheim,1884,False,72155,80,63,Otto Froitzheim,0.43679458866937315
Herbert_Spencer_Gasser,1888,False,86029,102,47,Herbert Gasser,0.43674952675102974
Karel_Doorman,1889,False,77298,113,43,Karel Doorman,0.43615352601671886
John_Tovey,1885,False,76295,105,46,John Tovey,0.4361440118097136
Milton_Sills,1882,False,79528,58,96,Milton Sills,0.43595819659514295
Alan_Goodrich_Kirk,1888,False,55472,83,62,Alan Goodrich Kirk,0.43591811519849044
Pedro_Pablo_Ramírez,1884,False,63358,103,48,Pedro Pablo Ramírez,0.43585907548646025
Sigmund_Romberg,1887,False,61392,103,48,Sigmund Romberg,0.43562633206695267
Walther_Meissner,1882,False,61357,112,44,Walther Meissner,0.4351654214618683
Susan_Sutherland_Isaacs,1885,False,72866,70,71,Susan Sutherland Isaacs,0.43493076921695256
Matt_Moore_(actor),1888,False,111564,62,76,Matt Moore (acteur),0.43419181005612867
Arthur_S._Carpender,1884,False,139526,45,130,Arthur S. Carpender,0.43413907323429135
Louis_Chauvin,1881,False,38963,221,29,Louis Chauvin,0.43402719351774843
Nick_LaRocca,1889,False,37966,99,52,Nick La Rocca,0.4336432971267863
Waldemar_Bonsels,1880,False,44273,154,35,Waldemar Bonsels,0.43350046476741966
Ture_Nerman,1886,False,75887,65,75,Ture Nerman,0.43348651683664996
Arturo_Rawson,1885,False,49481,118,42,Arturo Rawson,0.43347088097019115
Francis_Browne,1880,False,65444,135,36,Francis Browne,0.43322576328793005
Hubert_Wilkins,1888,False,91022,87,50,Hubert Wilkins,0.4330544049479225
Joseph_Egger,1889,False,47634,170,32,Joseph Egger,0.4327608779608993
Georges_Imbert,1884,False,40110,123,41,Georges Imbert,0.43230480075274297
George_Minot,1885,False,86929,119,37,George Minot,0.43192287317446576
Lauri_Kristian_Relander,1883,False,54092,71,68,Lauri Kristian Relander,0.4319121117550897
"Adolf_Friedrich_VI,_Grand_Duke_of_Mecklenburg-Strelitz",1882,False,104299,104,40,Adolphe-Frédéric VI de Mecklembourg-Strelitz,0.43161973887158295
Ralph_DePalma,1884,False,96453,105,40,Ralph DePalma,0.4314788250053319
Sophie_Tucker,1884,False,109065,159,29,Sophie Tucker,0.4311045975738502
Hitoshi_Imamura,1886,False,48080,186,29,Hitoshi Imamura,0.4304030285670828
Eugen_Leviné,1883,False,45429,105,44,Eugen Leviné,0.43037367768527157
Angelo_Iachino,1889,False,60681,71,63,Angelo Iachino,0.4300163546487879
Geoffrey_Fisher,1887,False,81701,81,51,Geoffrey Fisher,0.43000279997601176
Walther_Wever_(general),1887,False,72078,98,43,Walther Wever,0.42998497655350787
Ralph_Craig,1889,False,105724,70,57,Ralph Craig,0.4294404366567921
John_Cunningham_(Royal_Navy_officer),1885,False,83772,81,50,John Cunningham (militaire),0.4293713005435512
Walther_Stampfli,1884,False,54807,77,57,Walther Stampfli,0.4292765680688237
Maurice_Nicoll,1884,False,77780,86,47,Maurice Nicoll,0.42890522174358375
Alfred_Carlton_Gilbert,1884,False,61223,76,56,Alfred Gilbert,0.42881492714541036
Harry_Ferguson,1884,False,43634,170,30,Harry Ferguson,0.42866217378854915
Herbert_Silberer,1882,False,52619,81,52,Herbert Silberer,0.42765933778757825
Hugo_Black,1886,False,67791,95,42,Hugo Black,0.42725802806860125
Harold_Rainsford_Stark,1880,False,49590,105,40,Harold Rainsford Stark,0.42679848643391605
Miles_Malleson,1888,False,48275,99,42,Miles Malleson,0.42646748644585775
Felix_Frankfurter,1882,False,55231,125,34,Felix Frankfurter,0.42641371709195686
Aleksandras_Stulginskis,1885,False,56098,87,46,Aleksandras Stulginskis,0.4261947656117187
Yusif_Vazir_Chamanzaminli,1887,False,103916,53,76,Yusif Vəzir Çəmənzəminli,0.4255832182200726
Edgar_Stehli,1884,False,89520,107,35,Edgar Stehli,0.4254079040965573
Henry_J._Kaiser,1882,False,51298,100,40,Henry John Kaiser,0.42514463087982707
Wyndham_Halswelle,1882,False,88408,63,59,Wyndham Halswelle,0.424529210081993
Watsuji_Tetsuro,1889,False,55982,149,29,Tetsurō Watsuji,0.4243860479219254
Tris_Speaker,1888,False,44811,80,50,Tris Speaker,0.42437883471782
Mineichi_Koga,1885,False,60528,86,44,Mineichi Koga,0.4243787647238051
Reginald_Barker,1886,False,52667,75,51,Reginald Barker,0.42351840377083433
Isaac_C._Kidd,1884,False,48343,142,30,Isaac C. Kidd,0.4235158781466251
Ernest_Palmer_(American_cinematographer),1885,False,101772,59,61,Ernest Palmer,0.4234349864851242
Ion_Agârbiceanu,1882,False,68132,72,50,Ion Agârbiceanu,0.4227234394711218
August_Zaleski,1883,False,57397,87,42,August Zaleski,0.4224938728087758
Roberto_María_Ortiz,1886,False,58901,87,41,Roberto Marcelino Ortiz,0.4216314070177165
Eddie_Collins_(actor),1883,False,51108,100,37,Eddie Collins (acteur),0.4215768218886562
Mary_Nash,1884,False,70719,94,37,Mary Nash,0.4214165134191152
Eleanor_Farjeon,1881,False,62977,90,39,Eleanor Farjeon,0.42127154246046
Eduard_Künneke,1885,False,60873,79,44,Eduard Künneke,0.4208308558143956
Robert_Kerr_(athlete),1882,False,59170,65,54,Bobby Kerr,0.4200241135794797
Nikolai_Astrup,1880,False,58359,112,32,Nikolaï Astrup,0.4198323404358503
Jan_Kubelík,1880,False,51586,85,41,Jan Kubelík,0.41974263904768755
Harry_Hillman,1881,False,74605,54,66,Harry Hillman,0.4197011692711399
Roger_Nash_Baldwin,1884,False,50945,87,40,Roger Nash Baldwin,0.41953302877200155
Wladimir_Burliuk,1886,False,49817,98,36,Vladimir Bourliouk,0.41935140852067243
Milan_Vidmar,1885,False,49427,77,45,Milan Vidmar,0.419199385841398
Hidetsugu_Yagi,1886,False,49833,101,35,Hidetsugu Yagi,0.41919524798770796
Reggie_Walker,1889,False,52925,65,53,Reggie Walker,0.4185459956218349
Eva_Morris,1885,False,46167,137,28,Eva Morris,0.4183417400106052
Ernest_Marsden,1889,False,55518,79,42,Ernest Marsden,0.41823841285620406
Lascelles_Abercrombie,1881,False,58437,87,38,Lascelles Abercrombie,0.41822831698428015
Ring_Lardner,1885,False,51021,113,31,Ring Lardner,0.41763637749374627
Amedeo_Maiuri,1886,False,45169,102,34,Amedeo Maiuri,0.4174981685654458
Armas_Launis,1884,False,57396,55,62,Armas Launis,0.4167227153088935
Zoltán_Tildy,1889,False,63429,122,28,Zoltán Tildy,0.41661381388298024
William_Hood_Simpson,1888,False,48227,91,36,William Hood Simpson,0.4162409956332139
Rudolf_Weigl,1883,False,63983,113,29,Rudolf Weigl,0.4158090045672204
Richard_Oswald,1880,False,41286,112,31,Richard Oswald,0.415804991992865
Martin_and_Osa_Johnson,1884,False,41146,117,30,Martin et Osa Johnson,0.41568949432229657
Lesley_J._McNair,1883,False,46575,175,23,Lesley McNair,0.41507287451947805
Hermann_Obrecht,1882,False,59419,69,44,Hermann Obrecht,0.4147851083847171
Huntley_Gordon,1887,False,58236,52,63,Huntley Gordon,0.41454919976212334
C._K._Scott-Moncrieff,1889,False,77477,78,37,Charles Kenneth Scott Moncrieff,0.41443592386329736
Monty_Woolley,1888,False,56502,87,35,Monty Woolley,0.41427901687111146
Hugh_Lofting,1886,False,57609,86,35,Hugh Lofting,0.41395155527029315
Julian_C._Smith,1885,False,47436,59,54,Julian Smith,0.41392871598244146
Walter_Baldwin,1889,False,79155,121,26,Walter Baldwin,0.4138091204057969
Lancelot_Holland,1887,False,45184,96,33,Lancelot Holland,0.41380374666789793
Konstantinos_Tsaldaris,1884,False,49159,54,60,Konstantinos Tsaldaris,0.4136133175349705
Charles_Tomlinson_Griffes,1884,False,52006,90,33,Charles Griffes,0.41231188891969445
Marion_Leonard,1881,False,46666,49,67,Marion Leonard,0.41202665673211575
Papa_Celestin,1884,False,55192,81,35,Papa Celestin,0.4112634957455134
Margarita_Fischer,1886,False,84454,58,46,Margarita Fischer,0.41089995024282383
Kathleen_Howard,1884,False,100650,60,43,Kathleen Howard,0.41089089622000824
Ben-Zion_Dinur,1884,False,83208,75,35,Ben-Zion Dinur,0.4107654702977268
Robinson_Jeffers,1887,False,63099,109,27,Robinson Jeffers,0.4107269022623385
Heinrich_Barkhausen,1881,False,57239,91,31,Heinrich Barkhausen,0.4104083615458737
Harukichi_Hyakutake,1888,False,67484,56,49,Harukichi Hyakutake,0.41022499371433696
Fritz_Pfeffer,1889,False,63986,335,16,Fritz Pfeffer,0.4101912178619113
Texas_Guinan,1884,False,41469,70,41,Texas Guinan,0.41004558904624455
Julius_Fromm,1883,False,37274,153,23,Julius Fromm,0.4094397075616286
Monteiro_Lobato,1882,False,45715,76,36,Monteiro Lobato,0.40864564564190126
Tôn_Đức_Thắng,1888,False,57634,146,22,Tôn Đức Thắng,0.4084063060374373
Julius_Freed,1887,False,37953,146,23,Orange Julius,0.4081310039486552
Zoë_Akins,1886,False,54744,64,41,Zoe Akins,0.40803652489541364
Pauline_Frederick,1883,False,63120,71,36,Pauline Frederick,0.4079651186844542
Maude_Farris-Luse,1887,False,50297,161,21,Maude Farris-Luse,0.4076835568185553
"John_Jacob_Astor,_1st_Baron_Astor_of_Hever",1886,False,57453,140,22,John Jacob Astor V,0.4070810537728386
Marguerite_Clark,1883,False,53695,81,32,Marguerite Clark,0.40697121023879557
Martha_Wentworth,1889,False,50094,63,41,Martha Wentworth,0.4067464874527521
Vinayak_Damodar_Savarkar,1883,False,68431,123,23,Vinayak Damodar Savarkar,0.4066184104970275
Alexander_Woollcott,1887,False,49240,140,22,Alexander Woollcott,0.4060601794247148
Gerhard_Ritter,1888,False,62598,68,35,Gerhard Ritter,0.4048534267601663
Sam_Langford,1883,False,94317,140,20,Sam Langford,0.40444279023952573
Will_Cuppy,1884,False,49123,95,27,Will Cuppy,0.4041576295317272
Theodore_Stark_Wilkinson,1888,False,58582,48,52,Theodore S. Wilkinson,0.4039275675418557
Alfred_Noyes,1880,False,50648,73,33,Alfred Noyes,0.40381988576055633
Dally_Messenger,1883,False,85123,63,35,Dally Messenger,0.4034654384879677
Frederick_Lane,1888,False,48784,57,42,Frederick Lane,0.40302043757008016
Olga_Petrova,1884,False,58855,65,35,Olga Petrova,0.40253823911304315
Grover_Cleveland_Alexander,1887,False,47320,87,28,Grover Cleveland Alexander,0.4024876422423742
Toivo_Kuula,1883,False,44602,83,29,Toivo Kuula,0.4020248353783351
Oscar_Griswold,1886,False,60226,68,33,Oscar Griswold,0.40200787166748564
William_Temple_(bishop),1881,False,71831,83,27,William Temple (archevêque),0.4015623839494856
Harry_Ruby,1885,False,54425,75,30,Harry Ruby,0.40099464625184394
Tony_Jannus,1889,False,82293,84,26,Tony Jannus,0.40092580707494924
James_Lightbody,1882,False,77910,68,31,Jim Lightbody,0.40076223927236104
Ma_Zhanshan,1885,False,105101,76,27,Ma Zhanshan,0.4003969547649582
Eulalio_Gutiérrez,1881,False,89983,60,34,Eulalio Gutiérrez,0.4003932763708404
John_Flynn_(minister),1880,False,54155,137,20,John Flynn (aviateur),0.4003673838673435
Lynn_Thorndike,1882,False,49211,88,26,Lynn Thorndike,0.399463014397807
René_Cresté,1881,False,52768,75,29,René Cresté,0.39919730958836747
Subramania_Bharati,1882,False,52040,97,24,Subramanya Bharathi,0.3991532685620307
Eddie_Collins,1887,False,46625,60,35,Eddie Collins (baseball),0.3975897009622857
Jeanne_de_Salzmann,1889,False,35267,167,18,Jeanne de Salzmann,0.39676547648843197
John_Foulds,1880,False,43083,67,31,John Foulds,0.396439009054328
Percy_Kilbride,1888,False,56885,64,31,Percy Kilbride,0.39631512504984506
Anne_Bauchens,1882,False,54883,62,32,Anne Bauchens,0.39616836064664634
Tom_Phillips_(Royal_Navy_officer),1888,False,54596,115,20,Tom Phillips (militaire),0.39495815932098427
Sam_Crawford,1880,False,41982,59,34,Sam Crawford,0.39495381291774534
John_Lavarack,1885,False,57947,44,45,John Lavarack,0.39433411567069393
Abe_Attell,1883,False,90434,81,23,Abe Attell,0.39371978118455947
Albert_Hill_(athlete),1889,False,68874,54,33,Albert Hill,0.3928658800214245
"Bruce_Fraser,_1st_Baron_Fraser_of_North_Cape",1888,False,73225,101,20,Bruce Fraser,0.39249199868682394
Herman_Bing,1889,False,48332,51,36,Herman Bing,0.39174005147752067
Murray_Kinnell,1889,False,58067,43,43,Murray Kinnell,0.39154333889287335
Kosaku_Yamada,1886,False,57567,82,23,Kōsaku Yamada,0.39153101656131123
Paul_Pilgrim,1883,False,61536,47,37,Paul Pilgrim,0.3905049545495954
Bessie_Barriscale,1884,False,72505,65,26,Bessie Barriscale,0.3901962989977164
Florence_Turner,1885,False,47083,76,24,Florence Turner,0.38970012292523293
Oliver_Kirk,1884,False,55438,43,41,Oliver Kirk,0.38950835046343757
Theodore_Kosloff,1882,False,76999,100,19,Theodore Kosloff,0.3894509457433628
Antoinette_Perry,1888,False,45551,92,21,Antoinette Perry,0.3892429250642209
Alberto_di_Jorio,1884,False,53852,51,33,Alberto di Jorio,0.3888340448402267
Porfirio_Barba-Jacob,1883,False,46668,90,21,Porfirio Barba-Jacob,0.3886410536122793
Jonas_H._Ingram,1886,False,52188,46,37,Jonas H. Ingram,0.3884964368292652
Charles_Reidpath,1889,False,73970,44,37,Charles Reidpath,0.38841309030927024
Ernest_Pingoud,1887,False,42050,47,37,Ernest Pingoud,0.3881745427326468
Cyril_Burt,1883,False,48036,115,18,Cyril Burt,0.3878752831226971
Lynn_Fontanne,1887,False,51223,59,28,Lynn Fontanne,0.3876650646578984
Will_Hay,1888,False,55416,43,39,Will Hay,0.387632503263541
Johan_Laidoner,1884,False,63352,55,29,Johan Laidoner,0.38754084903502584
Harry_Ricardo,1885,False,42100,96,20,Harry Ricardo,0.3874586408963294
Norman_Scott_(Medal_of_Honor),1889,False,49691,86,21,Norman Scott,0.38745357685218146
Liberato_Pinto,1880,False,50009,61,27,Liberato Pinto,0.3872164880383439
Lima_Barreto,1881,False,49286,67,24,Afonso Henriques de Lima Barreto,0.3851951047272649
Belle_da_Costa_Greene,1883,False,46253,61,26,Belle da Costa Greene,0.3849733039344952
Cliff_Sterrett,1883,False,51912,54,28,Cliff Sterrett,0.3840127088602744
James_Stephenson,1889,False,46255,56,27,James Stephenson,0.38321256590218383
Channing_Pollock_(writer),1880,False,76668,47,30,Channing Pollock (dramaturge),0.3831380406923096
Pier_Ruggero_Piccio,1880,False,56592,59,25,Pier Piccio,0.3829612656973845
Virginia_Pearson,1886,False,61681,48,30,Virginia Pearson,0.3828730511291785
John_Willard_(playwright),1885,False,49451,41,37,John Willard,0.3826327687285826
E._J._Pratt,1882,False,36465,59,26,E. J. Pratt,0.38215626558732063
Percy_Marmont,1883,False,62220,63,23,Percy Marmont,0.38204169397389337
Pieter_Voltelyn_Graham_van_der_Byl,1889,False,51420,42,35,Pieter Voltelyn Graham van der Byl,0.38189666821584944
Millard_Harmon,1888,False,50590,42,35,Millard Harmon,0.38180094087713035
Margaret_Wycherly,1881,False,52602,68,22,Margaret Wycherly,0.38175042601919446
Lester_Cuneo,1888,False,48401,44,33,Lester Cuneo,0.38141861670885296
Ferenc_Münnich,1886,False,48110,61,24,Ferenc Münnich,0.38137872996656347
Hans_Gerhard_Creutzfeldt,1885,False,48459,78,20,Hans Gerhard Creutzfeldt,0.3812135345206448
Margaret_Caroline_Anderson,1886,False,62190,88,18,Margaret Caroline Anderson,0.3808267111281693
Petros_Voulgaris,1884,False,42776,43,34,Petros Voulgaris,0.38078586976285117
Bidhan_Chandra_Roy,1882,False,53720,62,23,Bidhan Chandra Roy,0.3805730731389793
Forrest_Smithson,1884,False,53697,49,28,Forrest Smithson,0.38000447808257426
Claud_Allister,1888,False,51328,51,27,Claud Allister,0.3798675040456598
Lew_Cody,1884,False,43537,72,20,Lew Cody,0.3777303504111887
George_McMillin,1889,False,52993,45,29,George J. McMillin,0.3776448747843441
Dick_Elliott,1886,False,122982,40,29,Dick Elliott,0.3766033156982892
Daniel_Jones_(phonetician),1881,False,47759,98,16,Daniel Jones (phonéticien),0.3756774836713275
Nevile_Henderson,1882,False,51733,55,23,Nevile Henderson,0.37558885720865043
Gustav_Herglotz,1881,False,63178,64,20,Gustav Herglotz,0.3755250491797962
Marie_Doro,1882,False,45867,79,18,Marie Doro,0.37545371794844845
Robert_C._Giffen,1886,False,51957,37,34,Robert C. Giffen,0.37465177238772096
Sylvia_Ashton,1880,False,43761,52,24,Sylvia Ashton,0.37436057769418285
Sōjin_Kamiyama,1884,False,52224,55,22,Sōjin Kamiyama,0.3734704739827313
Tadeusz_Kutrzeba,1886,False,39479,57,22,Tadeusz Kutrzeba,0.3732777117708527
Markus_Reiner,1886,False,57761,53,22,Markus Reiner,0.37253678765798875
Louis_Wolheim,1880,False,74310,93,15,Louis Wolheim,0.3724207172879261
Wyndham_Standing,1880,False,74997,57,20,Wyndham Standing,0.37200851058640916
James_E._Casey,1888,False,39289,120,14,James E. Casey,0.3718730418997595
Rudolf_Ramek,1881,False,45519,43,27,Rudolf Ramek,0.37167474310562215
Ion_Inculeț,1884,False,75104,42,25,Ion Inculeț,0.36995825574684255
Dimitrios_Semsis,1883,False,42815,40,28,Dimítrios Sémsis,0.36956435765261325
Fritz_August_Breuhaus_de_Groot,1883,False,44089,50,22,Fritz August Breuhaus,0.36866421865408144
Aubrey_Fitch,1883,False,47408,47,23,Aubrey Fitch,0.3686032873825089
Heinrich_Schlusnus,1888,False,37538,51,22,Heinrich Schlusnus,0.3685500135967757
Philip_Francis_Nowlan,1888,False,49341,55,20,Philip Francis Nowlan,0.3683750760600422
John_L._Lewis,1880,False,43949,88,15,John L. Lewis,0.36785816864640936
Stuart_Paton,1883,False,43250,58,19,Stuart Paton,0.36702141187097614
Samuel_Berger_(boxer),1884,False,54744,66,17,Samuel Berger (boxe anglaise),0.36696276590453747
Louise_Schroeder,1887,False,60561,55,19,Louise Schroeder,0.3668255847140045
Zack_Wheat,1888,False,38850,36,30,Zack Wheat,0.36682008671384303
Hans_Moser_(actor),1880,False,64749,88,14,Hans Moser (acteur),0.3655616336962965
Carl_Ebert,1887,False,56800,63,17,Carl Ebert,0.36550366675262985
William_Whitworth,1884,False,45757,40,25,William Whitworth,0.36512322078648296
Sam_Rayburn,1882,False,68643,84,14,Sam Rayburn,0.3644219374208942
Thomas_J._Moore,1883,False,85611,79,14,Tom Moore,0.3635846583773204
Peter_Fraser_(New_Zealand_politician),1884,False,70692,80,14,Peter Fraser,0.3630392681887298
J._Frank_Dobie,1888,False,44030,48,20,J. Frank Dobie,0.3623571771737956
Phraya_Manopakorn_Nititada,1884,False,37367,72,15,Phraya Manopakorn Nititada,0.36055088079523545
Laurette_Taylor,1883,False,62937,57,16,Laurette Taylor,0.35900244154215916
Knute_Rockne,1888,False,36842,110,12,Knute Rockne,0.3585535679468944
Refik_Saydam,1881,False,62069,98,12,Refik Saydam,0.35812028951813973
Grantland_Rice,1880,False,41451,59,16,Grantland Rice,0.358074721031031
Ethel_Clayton,1882,False,80433,59,15,Ethel Clayton,0.35770988032063833
Ugo_Pasquale_Mifsud,1889,False,38762,41,21,Ugo Pasquale Mifsud,0.3574630055044936
Gleb_W._Derujinsky,1888,False,43963,34,25,Gleb W. Derujinsky,0.3573996069363918
Bernard_Rawlings_(Royal_Navy_officer),1889,False,45233,62,15,Bernard Rawlings,0.3565667225968194
Zhou_Zuoren,1885,False,42641,50,17,Zhou Zuoren,0.35545922222580845
George_Kenney,1889,False,76697,72,13,George Kenney,0.3553291520668808
Inez_Milholland,1886,False,128523,52,15,Inez Milholland,0.3552473197120284
Lothrop_Stoddard,1883,False,83908,104,11,Lothrop Stoddard,0.3549400153619062
Zengo_Yoshida,1885,False,61994,46,17,Zengo Yoshida,0.3541302586655535
Oren_E._Long,1889,False,40190,34,23,Oren Long,0.35340328105879987
Harry_Antrim,1884,False,41056,47,17,Harry Antrim,0.35288725804409915
Z._D._Mangoaela,1883,False,39984,32,23,Zakea Dolphin Mangoaela,0.3505464024051815
Enrico_Mizzi,1885,False,36172,52,15,Enrico Mizzi,0.3492091192626666
Robert_G._Fowler,1884,False,42415,29,24,Robert Fowler (1884-1966),0.34786966311676043
Alfons_Maria_Jakob,1884,False,40191,49,15,Alfons Maria Jakob,0.34759382490586227
Edna_Goodrich,1883,False,49369,43,16,Edna Goodrich,0.3471631464742111
Valeska_Suratt,1882,False,58014,43,15,Valeska Suratt,0.34446506147847367
Harry_Hooper,1887,False,46844,44,15,Harry Hooper (baseball),0.3443279737718432
Nell_Brinkley,1886,False,47423,40,16,Nell Brinkley,0.3440999202292241
John_Cyril_Porte,1884,False,33468,38,17,John C. Porte,0.34335790637801594
José_Eustasio_Rivera,1888,False,51154,93,10,José Eustasio Rivera,0.34256130564303877
Kaarel_Eenpalu,1888,False,69221,39,15,Kaarel Eenpalu,0.34143272996415
William_Edmunds_(actor),1886,False,73309,82,10,William Edmunds,0.34081247383125507
Michael_Fekete,1886,False,46687,44,14,Michael Fekete,0.3404913321217961
Antoni_Łomnicki,1881,False,45779,44,14,Antoni Łomnicki,0.34039780723351193
Walter_Nash,1882,False,63252,53,12,Walter Nash,0.3393137175058869
Jesse_Pennington,1883,False,45058,33,17,Jesse Pennington,0.3388833751263202
"John_Rodgers_(naval_officer,_World_War_I)",1881,False,56078,32,17,John Rodgers (1881-1926),0.33855725192465747
Eric_Coates,1886,False,56720,78,10,Eric Coates (compositeur),0.3382859667872304
Olav_Aukrust,1883,False,45789,33,16,Olav Aukrust,0.3359926565193317
Felicjan_Sławoj_Składkowski,1885,False,71730,68,10,Felicjan Sławoj Składkowski,0.33541793882388005
Manuel_Pérez_y_Curis,1884,False,43933,35,15,Manuel Pérez y Curis,0.3349878807776748
Irene_Fenwick,1887,False,63064,52,11,Irene Fenwick,0.3330974219371645
William_L._Laurence,1888,False,51105,58,10,William L. Laurence,0.32923242081771303
Kanoko_Okamoto,1889,False,58268,45,11,Kanoko Okamoto,0.3279243899188198
"Walter_Citrine,_1st_Baron_Citrine",1887,False,40161,47,11,Walter Citrine,0.3277628606204013
E._L._Grant_Watson,1885,False,43064,29,15,Grant Watson,0.32697370733725695
Sam_McDaniel,1886,False,63190,96,8,Sam McDaniel,0.32668268891622493
Elsie_Ferguson,1883,False,84238,50,10,Elsie Ferguson,0.32667672152796756
Edward_Sheldon,1886,False,43985,42,11,Edward Sheldon,0.3243408055870669
Gisela_Richter,1882,False,48308,41,11,Gisela Marie Augusta Richter,0.32390573978421405
Jack_Hoxie,1885,False,42587,46,10,Jack Hoxie,0.3211805653003255
Princess_Sophie_of_Schönburg-Waldenburg,1885,False,39264,82,8,Sophie de Schönburg-Waldenburg,0.3208774079680213
Conrad_Helfrich,1886,False,52536,55,9,Conrad Helfrich,0.32035015010161794
Elisabeth_Tamm,1880,False,41776,36,11,Elisabeth Tamm,0.3186413822261587
Friedrich_Lahrs,1880,False,45895,24,14,Friedrich Lahrs,0.31548343800994544
Masao_Maruyama_(Japanese_Army_officer),1889,False,34344,46,9,Masao Maruyama (général japonais),0.3131880913604346
Adelina_Domingues,1888,False,34517,55,8,Adelina Domingues,0.3099686037722762
William_D._Francis,1889,False,35564,33,10,William Douglas Francis,0.3090791153364584
Ilo_Wallace,1888,False,39864,51,8,Ilo Wallace,0.3084482753849125
Violet_MacMillan,1887,False,42942,35,9,Violet MacMillan,0.30525755272521826
Leonid_Kulik,1883,False,52676,68,6,Leonid Kulik,0.2931397380961523
John_Alexander_Douglas_McCurdy,1886,False,46420,41,6,John Alexander Douglas McCurdy,0.28049197969753903
Takeo_Itō,1889,False,53980,27,7,Takeo Itō,0.2803482355993852
Hong_Yi,1880,False,37533,40,6,Li Shutong,0.2791451500095708
"George_Monckton-Arundell,_8th_Viscount_Galway",1882,False,42127,31,6,George Monckton-Arundell,0.2724684939895511
Julio_Lozano_Díaz,1885,False,37786,22,6,Julio Lozano Díaz,0.2615384339155028
Leonard_Mudie,1883,False,85157,77,4,Leonard Mudie,0.25557952015236446
Heikki_Ritavuori,1880,False,38145,27,4,Heikki Ritavuori,0.2335594545239831
Gustavo_Jiménez,1886,False,60485,48,3,Gustavo Jiménez,0.21309734994096682
Broncho_Billy_Anderson,1880,False,516624,0,144,Gilbert M. Anderson,0.1301505856854287
Boshirō_Hosogaya,1888,False,77431,0,138,Boshirō Hosogaya,0.12903180560598837
Theodore_Roosevelt_Jr.,1887,False,91577,0,116,"Theodore Roosevelt, Jr.",0.12871883663323375
Daniel_E._Barbey,1889,False,191392,0,78,Daniel E. Barbey,0.12806702831369393
Robert_Alfred_Theobald,1884,False,63532,0,81,Robert Alfred Theobald,0.127540897452602
Cyclone_Taylor,1884,False,123328,0,67,Frederick Taylor (hockey sur glace),0.1273717428491181
William_Ronald_Dodds_Fairbairn,1889,False,77164,0,68,William Ronald Dodds Fairbairn,0.12714452233729553
Hugo_Bergmann,1883,False,50201,0,32,Hugo Bergmann,0.12413437225606055
Aketo_Nakamura,1889,False,48700,0,29,Aketo Nakamura,0.12367831794612726
Margaret_Ayer_Barnes,1886,False,50725,0,21,Margaret Ayer Barnes,0.12209836979908413
Doris_Blackburn,1889,False,41798,0,20,Doris Blackburn,0.12171173879522752
Marius_Canard,1888,False,61411,0,18,Marius Canard,0.12133474712535819
Alf_Common,1880,False,58138,0,18,Alf Common,0.1213031547354989
Anton_Köllisch,1888,False,33653,0,14,Anton Köllisch,0.11936471364110253
Maude_Fealy,1881,False,57963,0,13,Maude Fealy,0.11915972987332957
Giuseppe_Mario_Bellanca,1886,False,43662,0,13,Giuseppe Mario Bellanca,0.11899720921931785
Alison_Uttley,1884,False,68818,0,11,Alison Uttley,0.11796459265226737
Florence_Reed,1883,False,48442,0,11,Florence Reed,0.11777218144002279
Esteban_Terradas_i_Illa,1883,False,35899,0,10,Esteve Terradas,0.11679797525220892
Ida_Rentoul_Outhwaite,1888,False,52452,0,9,Ida Rentoul Outhwaite,0.11605884190624352
Tom_Brown_(trombonist),1888,False,48475,0,9,Red Brown,0.11601591811916505
Nicholas_Charnetsky,1884,False,43113,0,9,Nikola Carneckyj,0.11595099291268311
Antonina_De_Angelis,1880,False,38374,0,9,Maria Ludovica De Angelis,0.11588514582542703
Xul_Solar,1887,False,55783,0,8,Xul Solar,0.11493091796104773
Gengo_Hyakutake,1882,False,53723,0,8,Gengo Hyakutake,0.11491112837302697
Forrest_Taylor,1883,False,44796,0,6,Forrest Taylor,0.11147780373690087
David_Powell_(actor),1883,False,44192,0,6,David Powell (acteur),0.11147082330964973
Cedric_Holland,1889,False,49394,0,5,Cedric Holland,0.10893471171372943
Doris_Keane,1881,False,48159,0,3,Doris Keane,0.09846348232071421
Eduard_Ritter_von_Schleich,1888,False,55447,0,2,Eduard Ritter von Schleich,0.0836980785829537
Henry_Kent_Hewitt,1887,False,52237,0,1,Henry Kent Hewitt,0.08368139289037561
Monte_Attell,1885,False,40357,0,2,Monte Attell,0.083607118260461
Paltiel_Daykan,1885,,1,1,1,?,0.05448825167540282
Harry_A._Marmer,1885,,1,1,1,?,0.05448825167540282
Mario_Talavera,1885,,1,1,1,?,0.05448825167540282
Sadayoshi_Tanabe,1888,,1,1,1,?,0.05448825167540282
Aurelio_Mosquera,1883,,1,1,1,?,0.05448825167540282
Otto_Dowling,1881,,1,1,1,?,0.05448825167540282
Lee_W._Stanley,1885,,1,1,1,?,0.05448825167540282
George_Gaul,1885,,1,1,1,?,0.05448825167540282
Naum_Torbov,1880,,1,1,1,?,0.05448825167540282
Ola_Solberg,1886,,1,1,1,?,0.05448825167540282
Royal_H._Weller,1881,,1,1,1,?,0.05448825167540282
Dimitrana_Ivanova,1881,,1,1,1,?,0.05448825167540282
Hawthorne_C._Gray,1889,,1,1,1,?,0.05448825167540282
Isabel_J._Cox,1882,,1,1,1,?,0.05448825167540282
Leonie_von_Meusebach–Zesch,1882,,1,1,1,?,0.05448825167540282
Chen_Xiefen,1883,,1,1,1,?,0.05448825167540282
Thakur_Anukulchandra,1888,,1,1,1,?,0.05448825167540282
Benjamin_(Fedchenkov),1880,,1,1,1,?,0.05448825167540282
Jacob_Fichman,1881,,1,1,1,?,0.05448825167540282
C._E._Woolman,1889,,1,1,1,?,0.05448825167540282
Albert_Orsborn,1886,,1,1,1,?,0.05448825167540282
Valli_Valli,1882,,1,1,1,?,0.05448825167540282
Donald_B._Beary,1888,,1,1,1,?,0.05448825167540282
"Enea_Bossi,_Sr.",1888,,1,1,1,?,0.05448825167540282
Orrick_Johns,1887,,1,1,1,?,0.05448825167540282
Yitzhak_Baer,1888,,1,1,1,?,0.05448825167540282
Ya'akov_Cohen_(writer),1881,,1,1,1,?,0.05448825167540282
Catherine_Schleimer-Kill,1884,,1,1,1,?,0.05448825167540282
Bede_Fanning,1885,,1,1,1,?,0.05448825167540282
Harry_Sunderland,1889,,1,1,1,?,0.05448825167540282
Alberto_Gerchunoff,1883,,1,1,1,?,0.05448825167540282
Doris_Große,1884,,1,1,1,?,0.05448825167540282
Oswald_Short,1883,,1,1,1,?,0.05448825167540282
Herb_Byrne,1887,,1,1,1,?,0.05448825167540282
James_P._Boyle,1885,,1,1,1,?,0.05448825167540282
William_T._Bovie,1882,,1,1,1,?,0.05448825167540282
Loyal_Blaine_Aldrich,1884,,1,1,1,?,0.05448825167540282
Michael_Somogyi,1883,,1,1,1,?,0.05448825167540282
Rachel_Katznelson-Shazar,1885,,1,1,1,?,0.05448825167540282
Rafael_Arévalo_Martínez,1884,,1,1,1,?,0.05448825167540282
Kirk_Bryan_(geologist),1888,,1,1,1,?,0.05448825167540282
Mike_Brady_(golfer),1887,,1,1,1,?,0.05448825167540282
Giuseppe_Tellera,1882,,1,1,1,?,0.05448825167540282
Frank_Tarrant,1880,,1,1,1,?,0.05448825167540282
Wilhelm_Fritz_von_Roettig,1888,,1,1,1,?,0.05448825167540282
Charles_Exeter_Devereux_Crombie,1880,,1,1,1,?,0.05448825167540282
Ethel_May_Halls,1882,,1,1,1,?,0.05448825167540282
Jacobo_Palm,1887,,1,1,1,?,0.05448825167540282
Kristian_Hellström,1880,,1,1,1,?,0.05448825167540282
Heisuke_Abe,1886,,1,1,1,?,0.05448825167540282
Michael_Considine,1885,,1,1,1,?,0.05448825167540282
Leo_Otis_Colbert,1883,,1,1,1,?,0.05448825167540282
Stephen_Galatti,1888,,1,1,1,?,0.05448825167540282
William_R._Munroe,1886,,1,1,1,?,0.05448825167540282
Nicolette_Bruining,1886,,1,1,1,?,0.05448825167540282
Lucy_Tayiah_Eads,1888,,1,1,1,?,0.05448825167540282
Carroll_McComas,1886,,1,1,1,?,0.05448825167540282
Muriel_Hazel_Wright,1889,,1,1,1,?,0.05448825167540282
William_Douglas_Cook,1884,,1,1,1,?,0.05448825167540282
Andrej_Bicenko,1886,,1,1,1,?,0.05448825167540282
George_Barker_(painter),1882,,1,1,1,?,0.05448825167540282
John_Morton-Finney,1889,,1,1,1,?,0.05448825167540282
T._Sathasiva_Iyer,1882,,1,1,1,?,0.05448825167540282
Ioannis_Demestichas,1882,,1,1,1,?,0.05448825167540282
Pete_Wendling,1888,,1,1,1,?,0.05448825167540282
George_H._Plympton,1889,,1,1,1,?,0.05448825167540282
Rudolph_Palm,1880,,1,1,1,?,0.05448825167540282
Chaturbhuj_Sahay,1883,,1,1,1,?,0.05448825167540282
Nathan_Post,1881,,1,1,1,?,0.05448825167540282
Richard_C._Saufley,1884,,1,1,1,?,0.05448825167540282
Clara_Nordström,1886,,1,1,1,?,0.05448825167540282
Robert_James_Hudson,1885,,1,1,1,?,0.05448825167540282
Nicholas_H._Heck,1882,,1,1,1,?,0.05448825167540282
Raymond_Stanton_Patton,1882,,1,1,1,?,0.05448825167540282
Charles_Armijo_Woodruff,1884,,1,1,1,?,0.05448825167540282
Oscar_A._C._Lund,1885,,1,1,1,?,0.05448825167540282
Reşit_Süreyya_Gürsey,1889,,1,1,1,?,0.05448825167540282
Avra_Theodoropoulou,1880,,1,1,1,?,0.05448825167540282
Emma_Asson,1889,,1,1,1,?,0.05448825167540282
Jessie_Arms_Botke,1883,,1,1,1,?,0.05448825167540282
Tutt_Brothers,1882,,1,1,1,?,0.05448825167540282
Peter_Bocage,1887,,1,1,1,?,0.05448825167540282
Shiro_Kawase,1889,,1,1,1,?,0.05448825167540282
Margaret_Henley,1888,,1,1,1,?,0.05448825167540282
"Charles_M._Cooke,_Jr.",1886,,1,1,1,?,0.05448825167540282
Ferenc_Talányi,1883,,1,1,1,?,0.05448825167540282
Zerna_Sharp,1889,,1,1,1,?,0.05448825167540282
M._Louise_Gross,1884,,1,1,1,?,0.05448825167540282
Campbell_Tait,1886,,1,1,1,?,0.05448825167540282
Olivia_Nordgren,1880,,1,1,1,?,0.05448825167540282
Richard_S._Edwards,1885,,1,1,1,?,0.05448825167540282
Benjamin_McCandlish,1886,,1,1,1,?,0.05448825167540282
Edwin_Keppel_Bennett,1887,,1,1,1,?,0.05448825167540282
Ferenc_Oslay,1883,,1,1,1,?,0.05448825167540282
Jessie_Aspinall,1880,,1,1,1,?,0.05448825167540282
Merrill_C._Meigs,1883,,1,1,1,?,0.05448825167540282
John_H._Hester,1886,,1,1,1,?,0.05448825167540282
Herbert_Strudwick,1880,,1,1,1,?,0.05448825167540282
Raymond_DeWalt,1885,,1,1,1,?,0.05448825167540282
Luis_Cluzeau_Mortet,1888,,1,1,1,?,0.05448825167540282
George_Shiels,1886,,1,1,1,?,0.05448825167540282
Wyncie_King,1884,,1,1,1,?,0.05448825167540282
John_van_Melle,1887,,1,1,1,?,0.05448825167540282
"Zdzisław_Żygulski,_Sr.",1888,,1,1,1,?,0.05448825167540282
Kojo_Tovalou_Houénou,1887,,1,1,1,?,0.05448825167540282
Percy_C._Mather,1882,,1,1,1,?,0.05448825167540282
Frank_Christian_(trumpeter),1887,,1,1,1,?,0.05448825167540282
Robert_McKeen,1884,,1,1,1,?,0.05448825167540282
William_A._Glassford,1886,,1,1,1,?,0.05448825167540282
Tenby_Davies,1884,,1,1,1,?,0.05448825167540282
Andrew_Watson_Myles,1884,,1,1,1,?,0.05448825167540282
Vin_Coutie,1881,,1,1,1,?,0.05448825167540282
John_Palm,1885,,1,1,1,?,0.05448825167540282
Louise_Marion_Bosworth,1881,,1,1,1,?,0.05448825167540282
Nikolai_Cholodny,1882,,1,1,1,?,0.05448825167540282
István_Kühár,1887,,1,1,1,?,0.05448825167540282
Tore_Ørjasæter,1886,,1,1,1,?,0.05448825167540282
Beatrice_Kerr,1887,,1,1,1,?,0.05448825167540282
Tomoshige_Samejima,1889,,1,1,1,?,0.05448825167540282
Siegmund_Glücksmann,1884,,1,1,1,?,0.05448825167540282
Arch_McCarthy,1881,,1,1,1,?,0.05448825167540282
Mariano_Andreu,1888,,1,1,1,?,0.05448825167540282
Frank_Burke_(baseball),1880,,1,1,1,?,0.05448825167540282
Richard_Maury,1882,,1,1,1,?,0.05448825167540282
Zeng_Junchen,1888,,1,1,1,?,0.05448825167540282
Dutch_Sterrett,1889,,1,1,1,?,0.05448825167540282
Alessandro_Guidoni,1880,,1,1,1,?,0.05448825167540282
Hubert_Harrison,1883,,1,1,1,?,0.05448825167540282
María_Beatriz_del_Rosario_Arroyo,1884,,1,1,1,?,0.05448825167540282
R._Williams_Parry,1884,,1,1,1,?,0.05448825167540282
Thomas_de_Hartmann,1885,,1,1,1,?,0.05448825167540282
Elsa_Brändström,1888,,1,1,1,?,0.05448825167540282
William_S._Pye,1880,,1,1,1,?,0.05448825167540282
Elsie_J._Oxenham,1880,,1,1,1,?,0.05448825167540282
Nicholas_Schenck,1881,,1,1,1,?,0.05448825167540282
Garfield_Wood,1880,,1,1,1,?,0.05448825167540282
Kamato_Hongo,1887,,1,1,1,?,0.05448825167540282
Mary_MacLane,1881,,1,1,1,?,0.05448825167540282
Paul_Popenoe,1888,,1,1,1,?,0.05448825167540282
Frederick_Handley_Page,1885,,1,1,1,?,0.05448825167540282
Peter_Stoner,1888,,1,1,1,?,0.05448825167540282
Rupert_Downes,1885,,1,1,1,?,0.05448825167540282
Charles_Nordhoff,1887,,1,1,1,?,0.05448825167540282
Otto_Plath,1885,,1,1,1,?,0.05448825167540282
Antisa_Khvichava,1880,,1,1,1,?,0.05448825167540282
Henry_Fillmore,1881,,1,1,1,?,0.05448825167540282
Edgar_J._Kaufmann,1885,,1,1,1,?,0.05448825167540282
Evadne_Price,1888,,1,1,1,?,0.05448825167540282
Alcide_Nunez,1884,,1,1,1,?,0.05448825167540282
Marjorie_Newell_Robb,1889,,1,1,1,?,0.05448825167540282
Catherine_Bramwell-Booth,1883,,1,1,1,?,0.05448825167540282
Lotte_Herrlich,1883,,1,1,1,?,0.05448825167540282
Duffy_Lewis,1888,,1,1,1,?,0.05448825167540282
Venkatarama_Ramalingam_Pillai,1888,,1,1,1,?,0.05448825167540282
Yehezkel_Abramsky,1886,,1,1,1,?,0.05448825167540282
Thomas_Sigismund_Stribling,1881,,1,1,1,?,0.05448825167540282
Elizabeth_Craig_(writer),1883,,1,1,1,?,0.05448825167540282
Florence_Easton,1882,,1,1,1,?,0.05448825167540282
Alfred_A._Cunningham,1882,,1,1,1,?,0.05448825167540282
John_Painter_(supercentenarian),1888,,1,1,1,?,0.05448825167540282
DeWitt_Wallace,1889,,1,1,1,?,0.05448825167540282
Mokichi_Okada,1882,,1,1,1,?,0.05448825167540282
Homer_S._Ferguson,1889,,1,1,1,?,0.05448825167540282
Isabel_Randolph,1889,,1,1,1,?,0.05448825167540282
Lilias_Armstrong,1882,,1,1,1,?,0.05448825167540282
Luo_Meizhen,1885,,1,1,1,?,0.05448825167540282
Harold_Saxton_Burr,1889,,1,1,1,?,0.05448825167540282
George_Jean_Nathan,1882,,1,1,1,?,0.05448825167540282
"Arthur_Schlesinger,_Sr.",1888,,1,1,1,?,0.05448825167540282
Tuti_Yusupova,1880,,1,1,1,?,0.05448825167540282
Henry_F._Phillips,1889,,1,1,1,?,0.05448825167540282
"Bob_Jones,_Sr.",1883,,1,1,1,?,0.05448825167540282
Stanley_Forman_Reed,1884,,1,1,1,?,0.05448825167540282
List_of_Dutch_supercentenarians#Geertje_Roelinga-de_Groot,1887,,1,1,1,?,0.05448825167540282
List_of_Dutch_supercentenarians#Ann_Jemimia_Flower,1885,,1,1,1,?,0.05448825167540282
José_Abad_Santos,1886,,1,1,1,?,0.05448825167540282
Burt_Mustin,1884,,1,1,1,?,0.05448825167540282
Harold_Hitz_Burton,1888,,1,1,1,?,0.05448825167540282
Aurora_Quezon,1888,,1,1,1,?,0.05448825167540282
"Terry_de_la_Mesa_Allen,_Sr.",1888,,1,1,1,?,0.05448825167540282
Allama_Mashriqi,1888,,1,1,1,?,0.05448825167540282
Neville_Cardus,1888,,1,1,1,?,0.05448825167540282
Edgar_Guest,1881,,1,1,1,?,0.05448825167540282
Syedna_Taher_Saifuddin,1888,,1,1,1,?,0.05448825167540282
Ulysses_S._Grant_III,1881,,1,1,1,?,0.05448825167540282
Vernon_Castle,1887,,1,1,1,?,0.05448825167540282
Bradbury_Robinson,1884,,1,1,1,?,0.05448825167540282
Joyce_Cary,1888,,1,1,1,?,0.05448825167540282
Andrew_Higgins,1886,,1,1,1,?,0.05448825167540282
Harry_H._Laughlin,1880,,1,1,1,?,0.05448825167540282
Squizzy_Taylor,1888,,1,1,1,?,0.05448825167540282
Felix_Ysagun_Manalo,1886,,1,1,1,?,0.05448825167540282
Syed_Sulaiman_Nadvi,1884,,1,1,1,?,0.05448825167540282
Mirza_Basheer-ud-Din_Mahmood_Ahmad,1889,,1,1,1,?,0.05448825167540282
Franklin_Pierce_Adams,1881,,1,1,1,?,0.05448825167540282
Sophie_Treadwell,1885,,1,1,1,?,0.05448825167540282
Norman_Thomas,1884,,1,1,1,?,0.05448825167540282
Josiah_Stamp,1880,,1,1,1,?,0.05448825167540282
Johnny_Gruelle,1880,,1,1,1,?,0.05448825167540282
Thomas_Sopwith,1888,,1,1,1,?,0.05448825167540282
Lincoln_Beachey,1887,,1,1,1,?,0.05448825167540282
Walter_Knott,1889,,1,1,1,?,0.05448825167540282
Hiram_Wesley_Evans,1881,,1,1,1,?,0.05448825167540282
Waite_Phillips,1883,,1,1,1,?,0.05448825167540282
Grace_Brown,1886,,1,1,1,?,0.05448825167540282
Walter_Terence_Stace,1886,,1,1,1,?,0.05448825167540282
Chester_Gillette,1883,,1,1,1,?,0.05448825167540282
Bess_Streeter_Aldrich,1881,,1,1,1,?,0.05448825167540282
Morton_Deyo,1887,,1,1,1,?,0.05448825167540282
Phil_Mead,1887,,1,1,1,?,0.05448825167540282
Reuvein_Margolies,1889,,1,1,1,?,0.05448825167540282
Armand_J._Piron,1888,,1,1,1,?,0.05448825167540282
Margit_Slachta,1884,,1,1,1,?,0.05448825167540282
Ado_Birk,1883,,1,1,1,?,0.05448825167540282
Rai_Rajeshwar_Bali,1889,,1,1,1,?,0.05448825167540282
Frank_Foster_(cricketer),1889,,1,1,1,?,0.05448825167540282
George_Roby_Dempster,1887,,1,1,1,?,0.05448825167540282
Edwin_Balmer,1883,,1,1,1,?,0.05448825167540282
Alfred_Francis_Blakeney_Carpenter,1881,,1,1,1,?,0.05448825167540282
Gadicherla_Harisarvottama_Rao,1883,,1,1,1,?,0.05448825167540282
Ernest_Tyldesley,1889,,1,1,1,?,0.05448825167540282
Arthur_L._Bristol,1886,,1,1,1,?,0.05448825167540282
F._Burrall_Hoffman,1882,,1,1,1,?,0.05448825167540282
Tringe_Smajli,1880,,1,1,1,?,0.05448825167540282
Syed_Zafarul_Hasan,1885,,1,1,1,?,0.05448825167540282
John_R._Sinnock,1888,,1,1,1,?,0.05448825167540282
T._F._O'Rahilly,1883,,1,1,1,?,0.05448825167540282
Edgar_Church,1888,,1,1,1,?,0.05448825167540282
Charles_Christie,1880,,1,1,1,?,0.05448825167540282
Edward_Hanson,1889,,1,1,1,?,0.05448825167540282
"Max_Moody,_Sr.",1883,,1,1,1,?,0.05448825167540282
Thomas_Quinlan_(impresario),1881,,1,1,1,?,0.05448825167540282
Eduard_C._Lindeman,1885,,1,1,1,?,0.05448825167540282
MacGillivray_Milne,1882,,1,1,1,?,0.05448825167540282
Dorothy_Donnelly,1880,,1,1,1,?,0.05448825167540282
Alice_Hollister,1886,,1,1,1,?,0.05448825167540282
G._Murray_Hulbert,1881,,1,1,1,?,0.05448825167540282
George_Bagration_of_Mukhrani,1884,,1,1,1,?,0.05448825167540282
Charlie_Parker_(cricketer),1882,,1,1,1,?,0.05448825167540282
Arthur_Borton,1883,,1,1,1,?,0.05448825167540282
George_Kenner,1888,,1,1,1,?,0.05448825167540282
Johanna_Westerdijk,1883,,1,1,1,?,0.05448825167540282
Ewart_Astill,1888,,1,1,1,?,0.05448825167540282
Helen_Hoyt,1887,,1,1,1,?,0.05448825167540282
Godfrey_Chevalier,1889,,1,1,1,?,0.05448825167540282
John_H._Hoover,1887,,1,1,1,?,0.05448825167540282
Anna_Rüling,1880,,1,1,1,?,0.05448825167540282
Walden_L._Ainsworth,1886,,1,1,1,?,0.05448825167540282
H.N._Werkman,1882,,1,1,1,?,0.05448825167540282
Tich_Freeman,1888,,1,1,1,?,0.05448825167540282
Robert_Henry_English,1888,,1,1,1,?,0.05448825167540282
Ola_Raknes,1887,,1,1,1,?,0.05448825167540282
Husain_Salaahuddin,1881,,1,1,1,?,0.05448825167540282
Madame_de_Meuron,1882,,1,1,1,?,0.05448825167540282
William_Barnard_Rhodes-Moorhouse,1887,,1,1,1,?,0.05448825167540282
Grover_Whalen,1886,,1,1,1,?,0.05448825167540282
Fritz_Pfleumer,1881,,1,1,1,?,0.05448825167540282
Kenneth_Whiting,1881,,1,1,1,?,0.05448825167540282
Bee_Ho_Gray,1885,,1,1,1,?,0.05448825167540282
Henry_Norwest,1884,,1,1,1,?,0.05448825167540282
Dorothy_Payne_Whitney,1887,,1,1,1,?,0.05448825167540282
Martin_O'Meara,1882,,1,1,1,?,0.05448825167540282
Albert_Plesman,1889,,1,1,1,?,0.05448825167540282
Sheila_Kaye-Smith,1887,,1,1,1,?,0.05448825167540282
George_A._Malcolm,1881,,1,1,1,?,0.05448825167540282
"John_W._Wilcox,_Jr.",1882,,1,1,1,?,0.05448825167540282
George_S._Rentz,1882,,1,1,1,?,0.05448825167540282
Arthur_E._Andersen,1885,,1,1,1,?,0.05448825167540282
Max_Ritter_von_Müller,1887,,1,1,1,?,0.05448825167540282
Vean_Gregg,1885,,1,1,1,?,0.05448825167540282
Olaf_M._Hustvedt,1886,,1,1,1,?,0.05448825167540282
Richard_Cramer,1889,,1,1,1,?,0.05448825167540282
Robert_L._Thornton,1880,,1,1,1,?,0.05448825167540282
Frederick_Hawksworth,1884,,1,1,1,?,0.05448825167540282
Frederick_J._Horne,1880,,1,1,1,?,0.05448825167540282
Essington_Lewis,1881,,1,1,1,?,0.05448825167540282
Aubrey_Faulkner,1881,,1,1,1,?,0.05448825167540282
Dorothy_Campbell,1883,,1,1,1,?,0.05448825167540282
Ants_Piip,1884,,1,1,1,?,0.05448825167540282
Julia_Sanderson,1887,,1,1,1,?,0.05448825167540282
Carlo_Bergamini_(admiral),1888,,1,1,1,?,0.05448825167540282
Eleonore_Baur,1885,,1,1,1,?,0.05448825167540282
Elmer_Fowler_Stone,1887,,1,1,1,?,0.05448825167540282
Harold_Geiger,1884,,1,1,1,?,0.05448825167540282
Royal_E._Ingersoll,1883,,1,1,1,?,0.05448825167540282
John_Murray_Anderson,1886,,1,1,1,?,0.05448825167540282
Reginald_Farrer,1880,,1,1,1,?,0.05448825167540282
Luiza_Zavloschi,1883,,1,1,1,?,0.05448825167540282
