link,year,disambiguation,length,pageviews,revisions,title,score
Adolf_Hitler,1889,False,631116,175298,10240,Adolf Hitler,0.9075239695317638
Franz_Kafka,1883,False,295448,44298,3976,Franz Kafka,0.823689379581971
Pablo_Picasso,1881,False,383037,50773,2940,Pablo Picasso,0.8220814697025226
Mustafa_Kemal_Atatürk,1881,False,207253,41386,2708,Mustafa Kemal Atatürk,0.8016077467843504
Benito_Mussolini,1883,False,601752,26352,1705,Benito Mussolini,0.7922430644533587
Martin_Heidegger,1889,False,424076,13785,2798,Martin Heidegger,0.7847426979114154
Charlie_Chaplin,1889,False,240655,30678,1927,Charlie Chaplin,0.784566958170257
Franz_Marc,1880,False,251342,18915,2231,Franz Marc,0.7772047651673752
Franklin_D._Roosevelt,1882,False,323088,29547,1150,Franklin D. Roosevelt,0.7692186936542151
Stefan_Zweig,1881,False,155251,29606,1290,Stefan Zweig,0.7603619453523774
Ernst_Thälmann,1886,False,199674,11826,1283,Ernst Thälmann,0.7401304975513621
Ludwig_Wittgenstein,1889,False,180733,11928,1326,Ludwig Wittgenstein,0.7398095122462875
Virginia_Woolf,1882,False,250554,9452,1325,Virginia Woolf,0.7385916737686725
Theodor_Heuss,1884,False,155187,13048,1247,Theodor Heuss,0.7374134135289625
Marc_Chagall,1887,False,192350,12225,1106,Marc Chagall,0.7349888680503517
Le_Corbusier,1887,False,192622,13645,964,Le Corbusier,0.7328670005289584
Harry_S._Truman,1884,False,253779,12799,865,Harry S. Truman,0.7315194118634509
Wilhelm_Canaris,1887,False,223801,9250,1137,Wilhelm Canaris,0.7305537726755217
Alfred_Wegener,1880,False,161646,7869,1421,Alfred Wegener,0.7280047442841062
Karl_I_of_Austria,1887,False,170325,11728,999,Karl I. (Österreich-Ungarn),0.7279285883959794
Coco_Chanel,1883,False,122699,15438,954,Coco Chanel,0.7277739838870063
Erich_von_Manstein,1887,False,170616,11313,945,Erich von Manstein,0.7248653599252173
Niels_Bohr,1885,False,114360,9063,1134,Niels Bohr,0.7182267638577918
John_Maynard_Keynes,1883,False,136113,9579,992,John Maynard Keynes,0.7180939461680452
Wilhelm_Keitel,1882,False,118390,14689,779,Wilhelm Keitel,0.7180082658063479
Gottfried_Benn,1886,False,158703,8022,1014,Gottfried Benn,0.716437478550673
Pope_John_XXIII,1881,False,123406,7793,1094,Johannes XXIII.,0.7139528066449661
Ludwig_Mies_van_der_Rohe,1886,False,151303,9795,786,Ludwig Mies van der Rohe,0.7118045323160505
Ernst_Ludwig_Kirchner,1880,False,170125,7784,862,Ernst Ludwig Kirchner,0.710757202758246
Ernst_Röhm,1887,False,106883,12015,756,Ernst Röhm,0.7097816244679702
Karl_Jaspers,1883,False,207833,5686,971,Karl Jaspers,0.7089479715301833
Igor_Stravinsky,1882,False,121401,7210,989,Igor Strawinsky,0.7078270381032116
Marcel_Duchamp,1887,False,189782,6153,908,Marcel Duchamp,0.707489119712651
James_Joyce,1882,False,184595,6918,795,James Joyce,0.7056130545462574
Heinz_Guderian,1888,False,101960,13506,603,Heinz Guderian,0.7029793429680876
Carl_von_Ossietzky,1889,False,165685,6738,790,Carl von Ossietzky,0.7028599871568091
Karl_Valentin,1882,False,126517,7486,815,Karl Valentin,0.7025935898104645
August_Macke,1887,False,114126,7131,836,August Macke,0.7003820241632949
Erwin_Schrödinger,1887,False,129590,8910,653,Erwin Schrödinger,0.6993942212484086
Karl_Barth,1886,False,193298,4445,949,Karl Barth,0.6992510065728884
Kurt_von_Schleicher,1882,False,164337,6894,689,Kurt von Schleicher,0.6981954700483705
Alexander_Fleming,1881,False,73494,9114,787,Alexander Fleming,0.6971766966560508
Diego_Rivera,1886,False,301409,4560,690,Diego Rivera,0.6950552242912692
Srinivasa_Aaiyangar_Ramanujan,1887,False,209936,6506,601,S. Ramanujan,0.6950023325980296
Georg_Trakl,1887,False,127170,6264,749,Georg Trakl,0.6944109047304753
Wilhelm_Furtwängler,1886,False,235855,4507,751,Wilhelm Furtwängler,0.694282384745848
Heinrich_Brüning,1885,False,131994,6170,732,Heinrich Brüning,0.6937296424311362
Mohammad_Mosaddegh,1882,False,206169,4943,715,Mohammad Mossadegh,0.693280972441918
Mohammad_Mosaddegh,1882,False,206169,4943,715,Mohammad Mossadegh,0.693280972441918
T._E._Lawrence,1888,False,78975,13178,523,T. E. Lawrence,0.6920067862942303
Béla_Bartók,1881,False,114442,5673,782,Béla Bartók,0.691343094348154
Günther_Lütjens,1889,False,255915,2249,1310,Günther Lütjens,0.6907953336360431
Paul_Hausser,1880,False,106640,7121,655,Paul Hausser,0.6900664541331167
Walter_Gropius,1883,False,106547,9265,546,Walter Gropius,0.6900164641880625
Oswald_Spengler,1880,False,143677,4144,888,Oswald Spengler,0.6900051458151475
George_Patton,1885,False,113391,8507,557,George S. Patton,0.6895997021285333
Boris_Karloff,1887,False,241936,3641,758,Boris Karloff,0.6881938648947483
Robert_Musil,1880,False,152206,5770,564,Robert Musil,0.6840741703743617
Max_Beckmann,1884,False,118459,4859,683,Max Beckmann,0.6823663671253714
Chiang_Kai-shek,1887,False,107535,6142,576,Chiang Kai-shek,0.6811207514082408
Amedeo_Modigliani,1884,False,190502,3783,637,Amedeo Modigliani,0.6794860131669924
Oskar_Kokoschka,1886,False,119182,6174,527,Oskar Kokoschka,0.6794456082387069
Crown_Prince_Wilhelm_of_Germany,1882,False,84986,9661,442,Wilhelm von Preußen (1882–1951),0.678574538975684
Hans_Moser_(actor),1880,False,78019,10383,421,Hans Moser,0.6768641311071344
Helen_Keller,1880,False,80734,7871,468,Helen Keller,0.6748153785282851
Joseph_Alois_Schumpeter,1883,False,110572,5224,530,Joseph Schumpeter,0.6737559727055
Albert_Kesselring,1885,False,101446,6060,474,Albert Kesselring,0.6721099638185439
Edward_Hopper,1882,False,82594,4699,590,Edward Hopper,0.670049309604492
Ludwig_Beck,1880,False,104132,5771,451,Ludwig Beck (General),0.6691810310713577
Ante_Pavelić,1889,False,95780,3922,582,Ante Pavelić,0.6666431459200747
Douglas_MacArthur,1880,False,114253,6703,364,Douglas MacArthur,0.665719919780139
Karen_Blixen,1885,False,111952,4194,497,Karen Blixen,0.6651078566085945
David_Ben-Gurion,1886,False,88871,4342,447,David Ben-Gurion,0.6583547596197253
"Joseph_P._Kennedy,_Sr.",1888,False,141687,5474,317,Joseph P. Kennedy,0.6575532840290752
Alban_Berg,1885,False,85571,4042,463,Alban Berg,0.6570757633506616
Jean_Arp,1886,False,95217,4170,398,Hans Arp,0.6536678401160864
Walther_von_Brauchitsch,1881,False,88343,6080,314,Walther von Brauchitsch,0.6527892296332237
Max_Born,1882,False,116760,3103,447,Max Born,0.6526645001476936
Jozef_Tiso,1887,False,281112,1547,599,Jozef Tiso,0.6524437428747435
Bela_Lugosi,1882,False,87575,4035,402,Bela Lugosi,0.6518402015653888
Franz_Halder,1884,False,100499,4235,367,Franz Halder,0.6516312511499769
Robert_Schuman,1886,False,94258,3488,432,Robert Schuman,0.6516045841301872
Ludwig_von_Mises,1881,False,103262,3049,445,Ludwig von Mises,0.6501257006159541
Emmy_Noether,1882,False,89207,3045,463,Emmy Noether,0.6493708410439625
Isoroku_Yamamoto,1884,False,133593,3912,324,Yamamoto Isoroku,0.6483841289200457
Günther_von_Kluge,1882,False,77408,5232,325,Günther von Kluge,0.6482768272099121
Bernard_Montgomery,1887,False,91689,4757,323,Bernard Montgomery,0.6480965913367369
Jean_Cocteau,1889,False,85886,4064,360,Jean Cocteau,0.6472878964521865
Hans_Kelsen,1881,False,111327,2670,440,Hans Kelsen,0.6467503646960555
Emil_Jannings,1884,False,79286,4194,357,Emil Jannings,0.6465839013604618
Fedor_von_Bock,1880,False,80134,4534,333,Fedor von Bock,0.6460100398942212
Edvard_Beneš,1884,False,97641,1963,592,Edvard Beneš,0.6456819917480638
Georges_Braque,1882,False,92023,3301,387,Georges Braque,0.6453066870438651
Eleanor_Roosevelt,1884,False,132638,4594,273,Eleanor Roosevelt,0.645261670117396
António_de_Oliveira_Salazar,1889,False,75610,4443,334,António de Oliveira Salazar,0.6446805696654904
Johannes_Blaskowitz,1883,False,112419,2900,389,Johannes Blaskowitz,0.644639000192873
Kahlil_Gibran,1883,False,67433,5528,303,Khalil Gibran,0.6445373210079329
Pio_of_Pietrelcina,1887,False,68305,4115,357,Pio von Pietrelcina,0.6437165698577657
Max_Brod,1884,False,98317,2731,414,Max Brod,0.6432768138748035
İsmet_İnönü,1884,False,125013,2701,368,İsmet İnönü,0.6418147961201249
T._S._Eliot,1888,False,104742,3863,299,T. S. Eliot,0.6410977979578806
Rudolf_Bultmann,1884,False,93317,2131,444,Rudolf Bultmann,0.6374172492595515
Josef_Frings,1887,False,92036,2125,447,Joseph Frings,0.6373721479256425
Ernst_Busch_(field_marshal),1885,False,92335,2591,372,Ernst Busch (Offizier),0.6366079268728726
Guillaume_Apollinaire,1880,False,126240,2550,332,Guillaume Apollinaire,0.6360704833882541
Werner_von_Fritsch,1880,False,90642,2849,339,Werner von Fritsch,0.6354858226818028
Otto_Frank,1889,False,49987,6687,246,Otto Heinrich Frank,0.6352787087575876
Chester_W._Nimitz,1885,False,97298,3456,286,Chester W. Nimitz,0.6350297831854842
Tojo_Hideki,1884,False,100661,3891,262,Tōjō Hideki,0.6350013187462012
F._W._Murnau,1888,False,78562,3110,327,Friedrich Wilhelm Murnau,0.6344510909776208
George_Marshall,1880,False,109859,3049,288,George C. Marshall,0.6335108861310637
Ezra_Pound,1885,False,82233,3022,317,Ezra Pound,0.633046105381687
George_Mallory,1886,False,87143,3767,259,George Mallory,0.6315267436812462
Jawaharlal_Nehru,1889,False,87832,3407,273,Jawaharlal Nehru,0.6311609222454925
Georgia_O'Keeffe,1887,False,92341,2782,300,Georgia O’Keeffe,0.6300892414537075
Anna_Akhmatova,1889,False,123515,1604,416,Anna Andrejewna Achmatowa,0.6297087369357495
Fernando_Pessoa,1888,False,76910,2905,297,Fernando Pessoa,0.628255259446906
Jean_Monnet,1888,False,91730,2247,328,Jean Monnet,0.6272457773909262
Ernst_Hanfstaengl,1887,False,70186,3707,254,Ernst Hanfstaengl,0.6270469973896793
Arnold_Zweig,1887,False,84024,2385,306,Arnold Zweig,0.6250091486074996
Elsa_Brändström,1888,False,78428,2149,339,Elsa Brändström,0.6249190047775117
Ion_Antonescu,1882,False,82430,2205,324,Ion Antonescu,0.6246531329467584
Nikolai_Ivanovich_Bukharin,1888,False,130589,1510,360,Nikolai Iwanowitsch Bucharin,0.6230448269453317
Hermann_Hoth,1885,False,76029,4096,212,Hermann Hoth,0.6228196785593688
Paul_Tillich,1886,False,85024,1973,328,Paul Tillich,0.6221716497789234
Karl_von_Frisch,1886,False,95926,1275,458,Karl von Frisch,0.6218171035738738
Wilhelmina_of_the_Netherlands,1880,False,71096,3599,228,Wilhelmina (Niederlande),0.6217223000633699
Edwin_Hubble,1889,False,71264,2359,301,Edwin Hubble,0.6216287440543299
Paul_Ludwig_Ewald_von_Kleist,1881,False,76889,2769,261,Ewald von Kleist (Generalfeldmarschall),0.6215118384948737
Maximilian_von_Weichs,1881,False,72896,3198,241,Maximilian von Weichs,0.6213363293086589
Dale_Carnegie,1888,False,56150,4593,206,Dale Carnegie,0.6198985333436012
Erich_von_Stroheim,1885,False,85494,1316,430,Erich von Stroheim,0.6190903994389917
Nikos_Kazantzakis,1883,False,74800,2153,296,Nikos Kazantzakis,0.6189466870085953
Anton_Webern,1883,False,76617,2401,267,Anton Webern,0.6183185846112961
Raymond_Chandler,1888,False,74901,2282,271,Raymond Chandler,0.6171218437742783
Alexander_I_of_Yugoslavia,1888,False,80764,2160,269,Alexander I. (Jugoslawien),0.6162689542064262
Giorgio_de_Chirico,1888,False,64144,2232,285,Giorgio de Chirico,0.6162634029012256
Otto_Heinrich_Warburg,1883,False,80047,2187,262,Otto Warburg (Biochemiker),0.6154272103519411
Gustaf_VI_Adolf_of_Sweden,1882,False,72410,3424,201,Gustav VI. Adolf (Schweden),0.6150207442941222
Arthur_Rubinstein,1887,False,91737,2034,255,Artur Rubinstein,0.6140458659948997
Alfonso_XIII_of_Spain,1886,False,65425,2737,233,Alfons XIII. (Spanien),0.614025371681191
Ernst_Heinkel,1888,False,70102,1944,288,Ernst Heinkel,0.6138489003963387
Princess_Alice_of_Battenberg,1885,False,55674,6008,156,Alice von Battenberg,0.6129220310998743
Hermann_Broch,1886,False,88459,1548,294,Hermann Broch,0.6108406605285731
Avery_Brundage,1887,False,247962,1205,258,Avery Brundage,0.6102541406199292
José_Raúl_Capablanca,1888,False,126655,1112,337,José Raúl Capablanca,0.6097498005662199
Georg_von_Küchler,1881,False,74562,2711,203,Georg von Küchler,0.6096137752109239
Max_Steiner,1888,False,77242,1241,360,Max Steiner,0.6093387905677284
Hermann_Staudinger,1881,False,113565,1184,317,Hermann Staudinger,0.6082211391017045
Günther_Quandt,1881,False,62325,2979,196,Günther Quandt,0.6080498008330848
Irving_Berlin,1888,False,62784,1507,315,Irving Berlin,0.6078361331761475
Vasily_Blyukher,1889,False,87459,1438,290,Wassili Konstantinowitsch Blücher,0.6077936664157714
Roland_Garros_(aviator),1888,False,59562,1912,263,Roland Garros,0.6073817215770381
Asta_Nielsen,1881,False,75148,1855,242,Asta Nielsen,0.6063839324760091
P._G._Wodehouse,1881,False,116987,1302,271,P. G. Wodehouse,0.6057352294928107
Friedrich_Olbricht,1888,False,64626,2433,202,Friedrich Olbricht,0.6044074433608464
D._H._Lawrence,1885,False,71343,1992,221,D. H. Lawrence,0.6039795817979072
Waldemar_Bonsels,1880,False,68636,2006,222,Waldemar Bonsels,0.603836437052243
Claude_Dornier,1884,False,92076,1368,268,Claude Dornier,0.6037924790011063
Otto_Bauer,1881,False,132595,929,335,Otto Bauer,0.6037489337474116
Sergey_Kirov,1886,False,78617,1505,261,Sergei Mironowitsch Kirow,0.6036589770227151
Clement_Attlee,1883,False,88624,1715,225,Clement Attlee,0.6032362255652315
Alexander_Kerensky,1881,False,69210,1804,231,Alexander Fjodorowitsch Kerenski,0.6024929344026725
Gustav_Ludwig_Hertz,1887,False,100916,1355,251,Gustav Hertz,0.6020818991380171
Han_van_Meegeren,1889,False,140037,922,309,Han van Meegeren,0.6011807885484513
Vidkun_Quisling,1887,False,71914,2059,201,Vidkun Quisling,0.600983506279254
Kliment_Voroshilov,1881,False,72059,1852,207,Kliment Jefremowitsch Woroschilow,0.5992144755323543
James_Franck,1882,False,91829,1221,262,James Franck,0.599178784112923
Umberto_Nobile,1885,False,57491,1481,262,Umberto Nobile,0.5989664818586701
José_Ortega_y_Gasset,1883,False,63565,1461,248,José Ortega y Gasset,0.5977895068256908
Cecil_B._DeMille,1881,False,68263,1528,230,Cecil B. DeMille,0.5971211097706037
Frank_Nitti,1886,False,96397,1675,192,Frank Nitti,0.596856514745892
Angela_Hitler,1883,False,36466,3297,172,Angela Hammitzsch,0.5968254285653515
Ettore_Bugatti,1881,False,59958,1921,200,Ettore Bugatti,0.5962736964963933
Semyon_Budyonny,1883,False,74398,1758,196,Semjon Michailowitsch Budjonny,0.5957842150124723
Juan_Gris,1887,False,57498,1531,233,Juan Gris,0.5953347863607716
W._C._Fields,1880,False,68665,1694,203,W. C. Fields,0.595112985981167
Heitor_Villa-Lobos,1887,False,77026,1250,243,Heitor Villa-Lobos,0.5946693997964567
Jaroslav_Hašek,1883,False,61577,1251,258,Jaroslav Hašek,0.594015656083365
"Adolf_Friedrich_VI,_Grand_Duke_of_Mecklenburg-Strelitz",1882,False,80487,897,314,Adolf Friedrich VI. (Mecklenburg),0.593792527728163
Władysław_Sikorski,1881,False,70241,1087,268,Władysław Sikorski,0.5926869596005855
Hugo_Sperrle,1885,False,68811,1722,189,Hugo Sperrle,0.5925679281062793
Otto_Klemperer,1885,False,66837,1436,217,Otto Klemperer,0.5925610728464896
Hugo_Schmeisser,1884,False,48590,1771,207,Hugo Schmeisser,0.5924214400676862
John_Foster_Dulles,1888,False,105836,1398,190,John Foster Dulles,0.5921105761860829
Hans_Geiger,1882,False,72092,1149,249,Hans Geiger (Physiker),0.5920296009990471
Auguste_Piccard,1884,False,59489,1752,193,Auguste Piccard,0.5919915534198843
Vicki_Baum,1888,False,63196,1350,225,Vicki Baum,0.5913710996491434
Éamon_de_Valera,1882,False,88440,1138,227,Éamon de Valera,0.5907282603899079
Douglas_Fairbanks,1883,False,61974,1971,171,Douglas Fairbanks senior,0.5906191183807529
Anton_Drexler,1884,False,56126,2354,156,Anton Drexler,0.589941401787177
Eugene_O'Neill,1888,False,87047,1293,202,Eugene O’Neill,0.5898241487767614
Edward_Rydz-Śmigły,1886,False,87479,897,271,Edward Rydz-Śmigły,0.5894654081513403
Anna_Pavlova,1881,False,59794,2209,156,Anna Pawlowna Pawlowa,0.5891065437208205
Bronisław_Malinowski,1884,False,65618,1418,202,Bronisław Malinowski,0.5889747834724326
Marcus_Garvey,1887,False,56147,1524,193,Marcus Garvey,0.5871222882915929
Hans-Jürgen_von_Arnim,1889,False,74951,1663,166,Hans-Jürgen von Arnim,0.5869987044547332
Conrad_Hilton,1887,False,40648,3883,121,Conrad Nicholson Hilton,0.5855647875893704
Alcide_De_Gasperi,1881,False,83935,1255,188,Alcide De Gasperi,0.5854223736381668
Igor_Sikorsky,1889,False,56993,1127,230,Igor Iwanowitsch Sikorski,0.5851624239719961
Sigrid_Undset,1882,False,96686,918,228,Sigrid Undset,0.5848987392197438
Gerrit_Rietveld,1888,False,49719,1623,178,Gerrit Rietveld,0.5838525514573264
Hugh_Dowding,1882,False,76858,473,489,"Hugh Dowding, 1. Baron Dowding",0.5833661353214723
Peter_Debye,1884,False,72801,830,263,Peter Debye,0.5833115359758428
Claude_Rains,1889,False,59931,1481,175,Claude Rains,0.5829969668617822
Victoria_Eugenie_of_Battenberg,1887,False,61740,1957,144,Victoria Eugénie von Battenberg,0.5825611205520355
Aleksei_Nikolaevich_Tolstoi,1883,False,76043,1102,196,Alexei Nikolajewitsch Tolstoi,0.5818244652932616
Pierre_Laval,1883,False,59664,1702,153,Pierre Laval,0.5810199088270557
Morihei_Ueshiba,1883,False,59160,1068,211,Ueshiba Morihei,0.5805480409905612
Al_Jolson,1886,False,85505,747,248,Al Jolson,0.5794695746796276
Jim_Thorpe,1887,False,101532,707,245,Jim Thorpe,0.579143216492562
Faisal_I_of_Iraq,1885,False,58125,2153,129,Faisal I.,0.5791264748534942
William_Boeing,1881,False,54454,1408,170,William Edward Boeing,0.5789889734537451
Arthur_Eddington,1882,False,79387,1054,184,Arthur Stanley Eddington,0.5783432665552347
Gerhard_Ritter,1888,False,86903,767,233,Gerhard Ritter,0.5782487193026162
Louis_B._Mayer,1885,False,50450,1471,164,Louis B. Mayer,0.5776896893260549
Johnny_Torrio,1882,False,54287,1823,140,Johnny Torrio,0.577620297151251
Zoltán_Kodály,1882,False,62036,1115,186,Zoltán Kodály,0.577426407939404
Rodolfo_Graziani,1882,False,89104,915,192,Rodolfo Graziani,0.576933325126122
George_Enescu,1881,False,65912,1318,155,George Enescu,0.5755242425053401
Otto_Stern,1888,False,88296,914,185,Otto Stern (Physiker),0.5752709614048571
Arnold_J._Toynbee,1889,False,69219,990,186,Arnold J. Toynbee,0.5750716875499848
Edgard_Varèse,1883,False,67655,905,200,Edgar Varèse,0.5747973147980777
Sinclair_Lewis,1885,False,72269,988,181,Sinclair Lewis,0.5744300140200462
Julian_Huxley,1887,False,64769,1098,166,Julian Huxley,0.572748989323258
Paul_Wittgenstein,1887,False,64427,1066,165,Paul Wittgenstein (Pianist),0.5715128054484251
Karol_Szymanowski,1882,False,76634,939,171,Karol Szymanowski,0.5711716433857511
Theodore_Roosevelt_Jr.,1887,False,58678,1826,119,Theodore Roosevelt junior,0.5710188996706316
Leo_Geyr_von_Schweppenburg,1886,False,62362,1056,163,Leo Geyr von Schweppenburg,0.5702937872522138
Victor_Francis_Hess,1883,False,82227,707,207,Victor Franz Hess,0.5702087937378361
Tomoyuki_Yamashita,1885,False,78077,858,177,Yamashita Tomoyuki,0.5698977203561455
Lothar_von_Arnauld_de_la_Perière,1886,False,53348,1127,161,Lothar von Arnauld de la Perière,0.569759777586968
Jan_Masaryk,1886,False,47452,2328,108,Jan Masaryk,0.5697388289912566
Roscoe_Arbuckle,1887,False,61156,1099,155,Roscoe Arbuckle,0.5691243801832164
John_Logie_Baird,1888,False,57487,998,166,John Logie Baird,0.5682729896609109
Felix_Yusupov,1887,False,60079,1097,151,Felix Felixowitsch Jussupow,0.567717795611219
John_Barrymore,1882,False,53261,1311,138,John Barrymore,0.5674828388013461
Shmuel_Yosef_Agnon,1888,False,76877,802,176,Samuel Agnon,0.5672547955530255
Eleonore_Baur,1885,False,56733,1047,156,Eleonore Baur,0.5669682778904183
Katherine_Mansfield,1888,False,71282,907,161,Katherine Mansfield,0.566659324209089
Chandrasekhara_Venkata_Raman,1888,False,80673,666,199,C. V. Raman,0.5663752294924798
Louise_Schroeder,1887,False,62484,806,177,Louise Schroeder,0.5651123505572582
Ernst_Kretschmer,1888,False,62973,754,186,Ernst Kretschmer,0.564973531292413
Maurice_Chevalier,1888,False,58296,1059,145,Maurice Chevalier,0.5645149433258818
Jean_de_Lattre_de_Tassigny,1889,False,62576,1225,129,Jean de Lattre de Tassigny,0.5645126713769264
Friedrich_Bergius,1884,False,76123,646,197,Friedrich Bergius,0.5642265010293533
"William_Halsey,_Jr.",1882,False,57166,1267,128,William F. Halsey,0.5640028390593137
Melanie_Klein,1882,False,50822,1208,132,Melanie Klein,0.562529228888737
Hubert_Wilkins,1888,False,174304,346,284,Hubert Wilkins,0.562423033378353
Getúlio_Vargas,1882,False,66057,721,177,Getúlio Vargas,0.5620937126493899
John_Reed_(journalist),1887,False,54702,961,148,John Reed,0.561633418876825
Gabriela_Mistral,1889,False,79184,708,167,Gabriela Mistral,0.5613090879993711
Artur_Schnabel,1882,False,57309,681,184,Artur Schnabel,0.5599500668530818
Robert_H._Goddard,1882,False,57951,730,172,Robert Goddard,0.5597615328088378
Édouard_Daladier,1884,False,55916,913,139,Édouard Daladier,0.5576384133687825
Juan_Ramón_Jiménez,1881,False,93785,684,149,Juan Ramón Jiménez,0.557389748523057
Smedley_Butler,1881,False,53203,904,139,Smedley D. Butler,0.5567178925075299
Ernest_Bloch,1880,False,73528,762,143,Ernest Bloch,0.5564288412560383
Lotte_Lehmann,1888,False,57641,783,150,Lotte Lehmann,0.5564054265404482
Fritz_Pfeffer,1889,False,51655,1458,103,Fritz Pfeffer,0.5563972721260926
François_Mauriac,1885,False,86767,653,154,François Mauriac,0.556316912052313
Gaston_Bachelard,1884,False,92908,805,128,Gaston Bachelard,0.5560609997539041
Walther_Wever_(general),1887,False,66244,792,141,Walther Wever,0.555842314379345
Blaise_Cendrars,1887,False,60287,625,174,Blaise Cendrars,0.555462108701879
Lead_Belly,1888,False,48748,970,129,Leadbelly,0.5545240345246878
Enoch_L._Johnson,1883,False,30161,1100,136,Enoch L. Johnson,0.5542337531361553
Leopold_Stokowski,1882,False,60170,1032,116,Leopold Stokowski,0.5541731303411531
Wilhelm_Backhaus,1884,False,58188,524,199,Wilhelm Backhaus,0.5539441309206983
François_Darlan,1881,False,57556,653,163,François Darlan,0.5538091975757997
Celâl_Bayar,1883,False,60555,901,124,Celâl Bayar,0.5532021455290388
Harpo_Marx,1888,False,46693,1051,120,Harpo Marx,0.5531337093119671
Joseph_Pilates,1883,False,42003,911,136,Joseph H. Pilates,0.5530402024367951
Eduard_Ritter_von_Schleich,1888,False,57714,780,138,Eduard von Schleich,0.5527917768744579
Alvin_Cullum_York,1887,False,91417,588,151,Alvin C. York,0.5525040144338557
Mirza_Basheer-ud-Din_Mahmood_Ahmad,1889,False,58633,408,248,Mirza Baschir ud-Din Mahmud Ahmad,0.5524584183754777
Bror_von_Blixen-Finecke,1886,False,41967,829,143,Bror von Blixen-Finecke,0.5522546230433466
Arnold_Rothstein,1882,False,53346,1726,86,Arnold Rothstein,0.5521303727993113
Theo_van_Doesburg,1883,False,52758,874,127,Theo van Doesburg,0.5516634448200587
Ernst_Robert_Curtius,1886,False,51999,729,144,Ernst Robert Curtius,0.5511528158135565
Victor_Fleming,1889,False,58746,619,158,Victor Fleming,0.55100716030699
Anton_Flettner,1885,False,53892,696,147,Anton Flettner,0.5509386094776098
Henry_A._Wallace,1888,False,83683,642,138,Henry A. Wallace,0.5507654381325139
Violet_Jessop,1887,False,35630,1604,94,Violet Jessop,0.5496806268781314
Nadia_Boulanger,1887,False,54893,700,141,Nadia Boulanger,0.5496224053352621
Gabriel_Marcel,1889,False,57366,669,144,Gabriel Marcel,0.5495444980277209
George_de_Hevesy,1885,False,71064,513,168,George de Hevesy,0.5491245257072942
Joe_Masseria,1886,False,41629,1469,93,Joe Masseria,0.5488782671511445
Julius_Fromm,1883,False,54534,633,150,Julius Fromm,0.5487771033536583
Leopold_Ružička,1887,False,66770,406,213,Leopold Ružička,0.548534212959578
"Joe_""King""_Oliver",1885,False,77310,542,151,Joe King Oliver,0.5478052942438256
Henry_H._Arnold,1886,False,59989,864,113,Henry H. Arnold,0.547650146464481
Aristides_de_Sousa_Mendes,1885,False,60842,405,212,Aristides de Sousa Mendes,0.5471926984944923
Irving_Langmuir,1881,False,57878,622,143,Irving Langmuir,0.5469539359983808
Manuel_Azaña,1880,False,52072,750,127,Manuel Azaña,0.5467649217362531
Marcel_Dupré,1886,False,62417,515,158,Marcel Dupré,0.5453774676396738
Joseph_Stilwell,1883,False,68024,494,157,Joseph Stilwell,0.5446441999780117
Eduard_Künneke,1885,False,55286,723,122,Eduard Künneke,0.5445893734002456
"Lon_Chaney,_Sr.",1883,False,52246,815,112,Lon Chaney senior,0.5438501970102145
Clementine_Churchill,1885,False,44851,1020,100,Clementine Churchill,0.5433858627413684
Max_Wertheimer,1880,False,49457,772,116,Max Wertheimer,0.5431016658817107
Hedda_Hopper,1885,False,48837,1294,85,Hedda Hopper,0.5430170783704352
Boris_Shaposhnikov,1882,False,58165,539,146,Boris Michailowitsch Schaposchnikow,0.5430118762399188
Georges_Bernanos,1888,False,54697,615,133,Georges Bernanos,0.5429200171809188
Ivan_Meštrović,1883,False,44947,468,179,Ivan Meštrović,0.5428322268797726
Hans_Richter_(artist),1888,False,51270,738,117,Hans Richter (Dadaist),0.5425159328800913
Prince_Yasuhiko_Asaka,1887,False,51948,457,173,Asaka Yasuhiko,0.5424450783517427
Vajiravudh,1880,False,79134,510,136,Vajiravudh,0.5416929537403862
James_F._Byrnes,1882,False,114919,584,111,James F. Byrnes,0.5415560439962204
Othmar_Schoeck,1886,False,50473,611,130,Othmar Schoeck,0.540809065322093
Joseph_Egger,1889,False,39234,1243,87,Josef Egger (Schauspieler),0.5404466575037191
H._L._Mencken,1880,False,47234,709,117,H. L. Mencken,0.54029152877491
Hans_Fischer,1881,False,54825,636,120,Hans Fischer (Chemiker),0.5396950019068281
Paul_Ehrenfest,1880,False,51585,522,143,Paul Ehrenfest,0.5396816894945279
"E._F._L._Wood,_1st_Earl_of_Halifax",1881,False,104974,385,153,"Edward Wood, 1. Earl of Halifax",0.5392024401673059
Saint-John_Perse,1887,False,78537,514,127,Saint-John Perse,0.5390446815360082
Carl_Van_Vechten,1880,False,60162,383,175,Carl Van Vechten,0.5380527999394178
André_François-Poncet,1887,False,51827,513,138,André François-Poncet,0.5377154153232595
Chūichi_Nagumo,1887,False,46162,853,98,Nagumo Chūichi,0.5376438678232295
Jacques_Maritain,1882,False,84645,370,161,Jacques Maritain,0.5373924723126238
Walter_Huston,1883,False,48296,711,108,Walter Huston,0.5371257941279501
Heinrich_Barkhausen,1881,False,64825,398,160,Heinrich Barkhausen,0.5369926434724309
Georgios_Papandreou,1888,False,45829,631,119,Georgios Papandreou,0.5369817052693964
Richard_Oswald,1880,False,55489,461,143,Richard Oswald,0.5362110648389332
Milan_Rastislav_Štefánik,1880,False,61229,543,120,Milan Rastislav Štefánik,0.5357752143289272
Fritz_August_Breuhaus_de_Groot,1883,False,93141,336,163,Fritz August Breuhaus de Groot,0.5351488188449816
Edward_Weston,1886,False,53019,538,123,Edward Weston,0.5348726064388073
Christian_Mortensen,1882,False,36441,875,96,Christian Mortensen,0.5345693501203844
"Archibald_Wavell,_1st_Earl_Wavell",1883,False,67285,480,124,"Archibald Wavell, 1. Earl Wavell",0.5340118522248775
Madame_de_Meuron,1882,False,39524,904,91,Elisabeth de Meuron,0.5339841185381226
Friedrich_Kellner,1885,False,67203,264,230,Friedrich Kellner,0.53387881398568
Theda_Bara,1885,False,44338,600,114,Theda Bara,0.5331477821638309
Henri_Coandă,1886,False,43605,674,105,Henri Marie Coandă,0.5330253733421075
Stanisław_Ignacy_Witkiewicz,1885,False,57648,434,137,Stanisław Ignacy Witkiewicz,0.5328179316139399
Fan_S._Noli,1882,False,50227,449,138,Fan Noli,0.5327403046230114
Donald_Crisp,1882,False,55037,411,144,Donald Crisp,0.5323025418941384
Jun'ichirō_Tanizaki,1886,False,68131,453,124,Tanizaki Jun’ichirō,0.5321413676207382
René_Guénon,1886,False,50081,582,108,René Guénon,0.531253567769544
Karl_von_Terzaghi,1883,False,70878,350,148,Karl von Terzaghi,0.5302067487901643
Hans_Gerhard_Creutzfeldt,1885,False,50161,444,130,Hans-Gerhard Creutzfeldt,0.5299611434775403
Walter_H._Schottky,1886,False,49397,568,107,Walter Schottky,0.5299108118310056
"Thomas_Midgley,_Jr.",1889,False,50910,574,105,Thomas Midgley,0.5297685781703023
Billie_Burke,1885,False,49852,507,112,Billie Burke,0.5282644800917032
Billie_Burke,1884,False,49852,507,112,Billie Burke,0.5282644800917032
R._G._Collingwood,1889,False,98837,238,196,Robin George Collingwood,0.5281948906617234
Mack_Sennett,1880,False,63326,396,129,Mack Sennett,0.5281921752126373
Prince_Naruhiko_Higashikuni,1887,False,61494,497,107,Higashikuni Naruhiko,0.5279791980624929
Maurice_Utrillo,1883,False,49086,579,100,Maurice Utrillo,0.5274845566068059
Tom_Mix,1880,False,52142,853,77,Tom Mix,0.5274564340876988
Austin_Osman_Spare,1886,False,49144,409,131,Austin Osman Spare,0.5271519871162459
Heinrich_Schlusnus,1888,False,49573,464,116,Heinrich Schlusnus,0.5267010810683731
Agustín_Pío_Barrios,1885,False,48711,406,130,Agustín Barrios Mangoré,0.5264891036033407
Wacław_Sierpiński,1882,False,58511,314,158,Wacław Sierpiński,0.5264299291431533
Frans_Eemil_Sillanpää,1888,False,82691,379,117,Frans Eemil Sillanpää,0.5254646362806477
Chico_Marx,1887,False,42904,711,86,Chico Marx,0.5253462719348038
Paul_Lukas,1887,False,48284,533,101,Paul Lukas,0.5250928624574619
Vincent_Auriol,1884,False,56865,377,128,Vincent Auriol,0.5249453797359697
Roger_Martin_du_Gard,1881,False,78717,347,126,Roger Martin du Gard,0.5247300990492395
Edwin_Fischer,1886,False,46506,417,123,Edwin Fischer,0.5247012039388806
Otto_Fritz_Meyerhof,1884,False,58055,352,131,Otto Fritz Meyerhof,0.5235819896358375
Wallace_Beery,1885,False,49350,436,113,Wallace Beery,0.5234477800785993
Álvaro_Obregón,1880,False,58480,233,205,Álvaro Obregón,0.5233328160110436
Velimir_Khlebnikov,1885,False,58558,397,114,Welimir Chlebnikow,0.5224355804026187
Husband_E._Kimmel,1882,False,41269,1023,66,Husband E. Kimmel,0.5218682090527359
Raymond_A._Spruance,1886,False,48540,648,82,Raymond A. Spruance,0.52173978263529
Döme_Sztójay,1883,False,61649,396,110,Döme Sztójay,0.5214204954709651
Olave_Baden-Powell,1889,False,40147,531,97,Olave Baden-Powell,0.5211108299990228
Masaharu_Homma,1887,False,48504,490,98,Homma Masaharu,0.5211019843071248
Gerald_Gardner_(Wiccan),1884,False,42714,344,136,Gerald Brousseau Gardner,0.5207872046672679
Yitzhak_Ben-Zvi,1884,False,48654,357,125,Jizchak Ben Zwi,0.5203366363386432
Seán_O'Casey,1880,False,64544,278,147,Seán O’Casey,0.520092469883684
Percy_Grainger,1882,False,58962,434,100,Percy Grainger,0.5200673969472177
Eugen_Leviné,1883,False,41973,576,88,Eugen Leviné,0.5198143676683591
Edna_Ferber,1887,False,65272,312,126,Edna Ferber,0.5188280552911074
Claude_Auchinleck,1884,False,52108,484,90,Claude Auchinleck,0.5177255530150126
Georgi_Dimitrov,1882,False,89418,134,352,Georgi Dimitroff,0.5176791293863953
Ernest_Ansermet,1883,False,58138,337,116,Ernest Ansermet,0.5172091892883914
Percy_Williams_Bridgman,1882,False,84154,297,117,Percy Williams Bridgman,0.5166246422905998
Sacha_Guitry,1885,False,50122,469,90,Sacha Guitry,0.516287492625654
Patriarch_Athenagoras_I_of_Constantinople,1886,False,47090,333,121,Athinagoras (Patriarch),0.5161835175226182
René_Coty,1882,False,56220,369,105,René Coty,0.5160392459426707
Alice_Paul,1885,False,66051,402,94,Alice Paul,0.5159742032049374
Gladys_Cooper,1888,False,43009,579,80,Gladys Cooper,0.5158488904691635
Rose_Wilder_Lane,1886,False,38693,759,69,Rose Wilder Lane,0.5153676367740747
Henry_Moseley,1887,False,40167,537,84,Henry Moseley,0.5150371230307613
Robert_Hichens_(sailor),1882,False,34018,485,94,Robert Hichens (Seemann),0.514950816798775
Ernest_Bevin,1881,False,69671,383,94,Ernest Bevin,0.5148564139418168
Frank_Jack_Fletcher,1885,False,42922,590,77,Frank Jack Fletcher,0.5145941221311756
George_Herriman,1880,False,75130,291,114,George Herriman,0.5136999719899038
"John_S._McCain,_Sr.",1884,False,51091,404,94,John S. McCain senior,0.5134618343219752
Una_O'Connor_(actress),1880,False,45906,429,92,Una O’Connor,0.5133849571004279
Victor_McLaglen,1886,False,48397,740,64,Victor McLaglen,0.5133107902132527
Felix_Frankfurter,1882,False,54115,466,83,Felix Frankfurter,0.5132542095918672
Ty_Cobb,1886,False,69320,438,82,Ty Cobb,0.5132344045966772
Marthe_Richard,1889,False,82802,282,113,Marthe Richard,0.5131140321212057
Edward_Bach,1886,False,35062,503,87,Edward Bach,0.5130486621620297
Frits_Zernike,1888,False,69285,321,104,Frits Zernike,0.5128156881493429
Rupert_Brooke,1887,False,49402,459,83,Rupert Brooke,0.511804742030652
Giovanni_Messe,1883,False,49970,390,93,Giovanni Messe,0.5115743052011079
Walter_Rudolf_Hess,1881,False,46606,422,89,Walter Rudolf Hess,0.5115572091369814
Joseph_Bech,1887,False,53544,351,99,Joseph Bech,0.5113221688314337
Alain-Fournier,1886,False,53331,341,101,Alain-Fournier,0.5110947398273982
Alexander_Vandegrift,1887,False,71165,310,102,Alexander A. Vandegrift,0.5110121123929465
John_Edensor_Littlewood,1885,False,50700,429,84,John Edensor Littlewood,0.5104295737067521
Walther_Schwieger,1885,False,40416,625,69,Walther Schwieger,0.5103417259532301
Eric_Gill,1882,False,50361,374,93,Eric Gill,0.5102319644031141
Sigmund_Romberg,1887,False,82420,186,165,Sigmund Romberg,0.5099129567359317
Stanley_Forman_Reed,1884,False,109350,176,164,Stanley Forman Reed,0.5099123771377309
Tod_Browning,1880,False,46116,490,77,Tod Browning,0.5096971017718807
Carlo_Carrà,1881,False,44132,438,84,Carlo Carrà,0.5096276570261918
Siegfried_Sassoon,1886,False,44426,330,105,Siegfried Sassoon,0.5095852042411724
Amadeo_Bordiga,1889,False,44709,293,114,Amadeo Bordiga,0.5086083635219262
Karel_Doorman,1889,False,41763,520,74,Karel Doorman,0.5086020007326284
Robert_A._Taft,1889,False,89988,333,85,Robert A. Taft,0.5080699937001907
Jonathan_Mayhew_Wainwright_IV,1883,False,52625,360,89,Jonathan M. Wainwright,0.5074971576823595
Harry_Nyquist,1889,False,35898,551,72,Harry Nyquist,0.5073899139668929
John_Franklin_Enders,1887,False,53641,233,126,John Franklin Enders,0.5055418110283847
Jerome_Kern,1885,False,47961,303,100,Jerome David Kern,0.5053614203969145
Lluís_Companys,1883,False,56666,260,110,Lluís Companys i Jover,0.50520338232643
Sarvepalli_Radhakrishnan,1888,False,58466,216,132,S. Radhakrishnan,0.5050715836850856
Paul_Karrer,1889,False,52591,290,100,Paul Karrer,0.5047224822313863
René_Cassin,1887,False,58184,275,102,René Cassin,0.504588906178248
John_Tovey,1885,False,60957,208,134,"John Tovey, 1. Baron Tovey",0.5044856074148922
Aleksandr_Vertinsky,1889,False,47052,193,158,Alexander Nikolajewitsch Wertinski,0.5044357790091614
Max_Fleischer,1883,False,45343,459,72,Max Fleischer (Cartoonist),0.5043442961617894
Clinton_Davisson,1881,False,75331,258,101,Clinton Davisson,0.5043236320798589
Robert_Moses,1888,False,61332,433,70,Robert Moses,0.5042584442189711
Roy_Chapman_Andrews,1884,False,49300,184,164,Roy Chapman Andrews,0.5041211414307708
Robert_Robinson_(organic_chemist),1886,False,59531,219,124,Robert Robinson,0.5035292432581365
Will_Durant,1885,False,48383,496,66,William James Durant,0.5032409444445864
Erle_Stanley_Gardner,1889,False,55917,279,98,Erle Stanley Gardner,0.5031072595294336
Emilio_Mola,1887,False,42234,428,73,Emilio Mola,0.5020446328111867
Bess_Truman,1885,False,45520,498,65,Bess Truman,0.5019866694149349
Gabriel_Voisin,1880,False,48523,254,106,Gabriel Voisin,0.5012973700863038
Manne_Siegbahn,1886,False,73370,239,101,Manne Siegbahn,0.5011447110757621
Tadeusz_Kutrzeba,1886,False,41796,310,91,Tadeusz Kutrzeba,0.5008552541592585
Selman_Waksman,1888,False,57107,216,118,Selman Abraham Waksman,0.5007281891692634
Vittorio_Pozzo,1886,False,51134,345,79,Vittorio Pozzo,0.5005451136117521
Hannes_Kolehmainen,1889,False,63450,286,87,Hannes Kolehmainen,0.5003161839195912
Kurt_Atterberg,1887,False,53558,362,75,Kurt Atterberg,0.5002938004946055
Hugo_Bergmann,1883,False,46628,295,91,Samuel Hugo Bergman,0.5002370644661817
Lytton_Strachey,1880,False,45351,366,77,Lytton Strachey,0.5001532788445877
Willem_Drees,1886,False,58768,271,92,Willem Drees,0.49994562454276514
Sessue_Hayakawa,1889,False,58776,401,67,Sessue Hayakawa,0.4993083091501708
André_Marty,1886,False,53066,240,102,André Marty (Politiker),0.49854595219744496
Rembrandt_Bugatti,1884,False,51798,413,66,Rembrandt Bugatti,0.4982767604366099
Alfredo_Casella,1883,False,59275,327,75,Alfredo Casella,0.4978752863002755
Alf_Landon,1887,False,53199,303,81,Alf Landon,0.4975766443225291
Arnold_Bax,1883,False,52731,314,78,Arnold Bax,0.49707974257294557
Geoffrey_de_Havilland,1882,False,41424,417,67,Geoffrey de Havilland,0.49701945161956035
Holland_Smith,1882,False,55315,349,71,Holland M. Smith,0.4969009287696166
Olaf_Stapledon,1886,False,52149,257,92,Olaf Stapledon,0.4968143925595101
Theodor_Svedberg,1884,False,56523,230,99,The Svedberg,0.49636714367875856
Mills_Brothers,1889,False,45176,218,109,The Mills Brothers,0.495772517286404
Jacob_Epstein,1880,False,44772,297,82,Jacob Epstein,0.495675725498042
Edgar_Adrian,1889,False,59787,167,135,"Edgar Adrian, 1. Baron Adrian",0.49530910383753324
Milan_Vidmar,1885,False,48014,196,118,Milan Vidmar,0.4950920356159204
Malcolm_Campbell,1885,False,48212,289,81,"Malcolm Campbell (Rennfahrer, 1885)",0.4949402859507204
Beulah_Bondi,1889,False,44353,273,86,Beulah Bondi,0.49460979448464804
George_David_Birkhoff,1884,False,52171,205,108,George David Birkhoff,0.49444049838199633
Hugo_Black,1886,False,59531,516,52,Hugo Black,0.4943765957684908
Max_Linder,1883,False,46634,296,79,Max Linder,0.49436825515817945
Beno_Gutenberg,1889,False,49853,287,79,Beno Gutenberg,0.4939545128515959
Harlow_Shapley,1885,False,56108,252,85,Harlow Shapley,0.49354684527061793
Giovanni_Battista_Caproni,1886,False,46739,677,46,Giovanni Battista Caproni,0.49283241396403776
Rebecca_Helferich_Clarke,1886,False,69541,313,67,Rebecca Clarke,0.4927598634694976
Cyril_Burt,1883,False,46526,227,96,Cyril Burt,0.4927358771958616
Alphonse_Juin,1888,False,41882,379,65,Alphonse Juin,0.49269700178003745
Inge_Lehmann,1888,False,48468,199,108,Inge Lehmann,0.4925329166915043
Edward_Calvin_Kendall,1886,False,81902,224,84,Edward Calvin Kendall,0.4921713426299721
Rudolf_Weigl,1883,False,42126,265,84,Rudolf Weigl,0.4920437640748643
Paul_Leni,1885,False,47839,210,101,Paul Leni,0.4919885127293991
Fritz_Reiner,1888,False,50458,309,71,Fritz Reiner,0.49191851702128736
Walton_Walker,1889,False,51169,322,68,Walton Walker,0.49148211223714555
Lothrop_Stoddard,1883,False,50510,247,84,Lothrop Stoddard,0.49129999568582194
Hans_Wilsdorf,1881,False,32163,728,46,Hans Wilsdorf,0.4908753012845696
Giles_Gilbert_Scott,1880,False,71580,226,83,Giles Gilbert Scott,0.49079001862968735
Archibald_Hill,1886,False,54305,187,104,Archibald Vivian Hill,0.4897301699463636
Archibald_Hill,1886,False,54305,187,104,Archibald Vivian Hill,0.4897301699463636
Willis_O'Brien,1886,False,41848,206,100,Willis O’Brien,0.4895271073216028
Panait_Istrati,1884,False,47428,266,76,Panait Istrati,0.4891201647808404
"John_Jacob_Astor,_1st_Baron_Astor_of_Hever",1886,False,39025,141,159,"John Jacob Astor, 1. Baron Astor of Hever",0.4890241261638826
Kid_Ory,1886,False,42290,273,76,Kid Ory,0.48890021923793053
Risto_Ryti,1889,False,50636,299,68,Risto Ryti,0.4888894072533917
Victor_Goldschmidt,1888,False,49746,174,112,Victor Moritz Goldschmidt,0.4886758317453368
Robert_J._Flaherty,1884,False,51981,254,76,Robert J. Flaherty,0.4883655258521328
Sylvia_Pankhurst,1882,False,45863,380,57,Sylvia Pankhurst,0.4873767560786561
Norman_Haworth,1883,False,46936,271,72,Walter Norman Haworth,0.48732316227495986
George_Abbott,1887,False,47646,211,89,George Abbott,0.4871920620743357
Francesco_Baracca,1888,False,36628,384,59,Francesco Baracca,0.4871336196383176
Ma_Rainey,1886,False,38231,327,65,Ma Rainey,0.4870294288664393
Barry_Fitzgerald,1888,False,47234,237,79,Barry Fitzgerald,0.48657989151730935
Jean_Hersholt,1886,False,48024,329,61,Jean Hersholt,0.48651951833251356
Joseph_Trumpeldor,1880,False,40550,210,91,Joseph Trumpeldor,0.4863040197709955
Sir_Richard_O'Connor,1889,False,76114,157,106,Richard O’Connor,0.4862967812607359
Tom_Phillips_(Royal_Navy_officer),1888,False,41352,194,98,Tom Spencer Vaughan Phillips,0.48629499114802655
Giovanni_Papini,1881,False,45148,261,73,Giovanni Papini,0.4862298988335858
Harry_Ricardo,1885,False,52015,342,58,Harry Ricardo,0.4861201697210663
Harvey_Spencer_Lewis,1883,False,55994,141,129,Harvey Spencer Lewis,0.48573558998585004
Ed_Wynn,1886,False,42997,768,39,Ed Wynn,0.4857079816782933
"Philip_Noel-Baker,_Baron_Noel-Baker",1889,False,62045,198,85,Philip Noel-Baker,0.4853945686649917
Max_Ritter_von_Müller,1887,False,42177,250,75,Max von Müller (Jagdflieger),0.4852022792978167
Miles_Malleson,1888,False,39456,288,68,Miles Malleson,0.4851741721532978
Toyoda_Soemu,1885,False,42253,272,69,Toyoda Soemu,0.48455040692228607
Bernardo_Houssay,1887,False,55051,203,83,Bernardo Alberto Houssay,0.4842866880713614
Margit_Slachta,1884,False,61310,162,101,Margit Slachta,0.48388706508303686
Francisco_Canaro,1888,False,54053,176,95,Francisco Canaro,0.4838176193806962
Georges_Mandel,1885,False,46069,244,72,Georges Mandel,0.48344542465220675
Carl_Vinson,1883,False,67988,315,55,Carl Vinson,0.48334877922176467
Frank_Lloyd,1886,False,48737,218,78,Frank Lloyd,0.4832757057446312
Herbert_Spencer_Gasser,1888,False,66540,150,104,Herbert Spencer Gasser,0.4824574227363909
Christabel_Pankhurst,1880,False,34425,563,44,Christabel Pankhurst,0.48241115519195404
Clifton_Webb,1889,False,39441,357,55,Clifton Webb,0.48221285546656745
"Simon_Bolivar_Buckner,_Jr.",1886,False,53126,273,62,Simon B. Buckner junior,0.48203725681002807
Frigyes_Riesz,1880,False,42770,220,77,Frigyes Riesz,0.4818245752346648
Pascin,1885,False,43877,263,66,Jules Pascin,0.48178428415358004
Peter_Fraser_(New_Zealand_politician),1884,False,65899,106,163,Peter Fraser,0.48137012979258076
Evelyn_Nesbit,1884,False,50406,470,44,Evelyn Nesbit,0.4811677377005291
Charles_Nordhoff,1887,False,35546,157,109,Charles Bernard Nordhoff,0.4801468737778676
Anthony_Wilding,1883,False,91987,175,77,Anthony Wilding,0.4799639545086909
L._S._Lowry,1887,False,38350,333,55,Lawrence Stephen Lowry,0.4797655631008134
Joaquín_Turina,1882,False,43654,280,60,Joaquín Turina,0.4795248796308035
Rube_Goldberg,1883,False,36937,404,49,Rube Goldberg,0.4795193246640962
Rudolf_Ramek,1881,False,66683,211,67,Rudolf Ramek,0.4784586862801492
Anita_Loos,1888,False,64862,266,56,Anita Loos,0.47819887203083755
Sax_Rohmer,1883,False,41892,253,63,Sax Rohmer,0.4779239690333678
Adolphe_Pégoud,1889,False,39007,237,67,Adolphe Pégoud,0.4776907244983671
Walther_Stampfli,1884,False,50147,188,76,Walther Stampfli,0.47689820589156956
Sylvia_Beach,1887,False,47482,219,67,Sylvia Beach,0.47674403936145593
John_Boyd_Orr,1880,False,51934,150,94,"John Boyd Orr, 1. Baron Boyd-Orr",0.4764997309129968
Edith_Bratt,1889,False,36070,186,82,Edith Tolkien,0.47641802226887386
Walther_Meissner,1882,False,49841,207,69,Walther Meißner,0.47640791866796267
Gian_Francesco_Malipiero,1882,False,57689,203,68,Gian Francesco Malipiero,0.4763888176833616
Geraldine_Farrar,1882,False,37153,301,55,Geraldine Farrar,0.4762491996800124
Ramón_Grau,1882,False,44313,301,53,Ramón Grau San Martín,0.47614977918280577
Louis_Wolheim,1880,False,38954,301,54,Louis Wolheim,0.47582830901952017
Nobutake_Kondō,1886,False,33390,288,57,Kondō Nobutake,0.47546395796090435
Rajendra_Prasad,1884,False,47452,175,79,Rajendra Prasad,0.47518897250484404
Jacob_L._Devers,1887,False,35755,232,65,Jacob L. Devers,0.47477677876729557
Nikolaos_Plastiras,1883,False,54022,211,64,Nikolaos Plastiras,0.4745783999140844
Hermann_Obrecht,1882,False,40514,245,59,Hermann Obrecht,0.4735397548857804
Hugh_Lofting,1886,False,43091,294,51,Hugh Lofting,0.4732609835354544
William_Ronald_Dodds_Fairbairn,1889,False,48978,182,72,William R. D. Fairbairn,0.4732214500292464
Lesley_J._McNair,1883,False,38337,381,44,Lesley J. McNair,0.47257401503721236
Richard_C._Tolman,1881,False,47424,175,74,Richard C. Tolman,0.4725483494337778
Sveinn_Björnsson,1881,False,49469,168,76,Sveinn Björnsson,0.4724245363352188
Alfons_Maria_Jakob,1884,False,35377,222,63,Alfons Maria Jakob,0.47176340084947377
Thomas_Hart_Benton_(painter),1889,False,43033,255,54,Thomas Hart Benton (Maler),0.4713505559030356
Charles_Ruggles,1886,False,43001,156,82,Charles Ruggles,0.4711981672010476
Carl_Ebert,1887,False,45073,151,83,Carl Ebert (Schauspieler),0.4707836467945048
Johan_Laidoner,1884,False,53990,156,76,Johan Laidoner,0.4702762093300274
Ugo_Cavallero,1880,False,41598,216,60,Ugo Cavallero,0.47017515854061054
James_B._Sumner,1887,False,56304,162,72,James Batcheller Sumner,0.4699623599477524
Fritz_Pfleumer,1881,False,37318,253,54,Fritz Pfleumer,0.469757181957348
Sybil_Thorndike,1882,False,42729,231,56,Sybil Thorndike,0.4696362981408445
Guccio_Gucci,1881,False,33292,504,37,Guccio Gucci,0.4694573874008154
Shoeless_Joe_Jackson,1887,False,45370,505,35,Joseph Jefferson Jackson,0.46918554500391396
Władysław_Raczkiewicz,1885,False,41999,156,78,Władysław Raczkiewicz,0.4690373734666038
Nevile_Henderson,1882,False,39397,232,56,Nevile Henderson,0.4690327434634363
Jorge_Chávez,1887,False,35568,180,70,Jorge Chávez Dartnell,0.4686709299990156
W._T._Cosgrave,1880,False,74944,147,72,William Thomas Cosgrave,0.46851295835505163
Spring_Byington,1886,False,39819,243,53,Spring Byington,0.4681438094085203
Allan_Dwan,1885,False,40948,192,63,Allan Dwan,0.46794300197610156
Tudor_Arghezi,1880,False,48249,148,77,Tudor Arghezi,0.4676816946854059
Jisaburō_Ozawa,1886,False,37366,207,60,Ozawa Jisaburō,0.4676729847772637
Gustav_Herglotz,1881,False,46416,161,71,Gustav Herglotz,0.4674401536895455
Warner_Baxter,1889,False,46637,194,60,Warner Baxter,0.46737783618832535
Hugh_Walpole,1884,False,41386,191,62,Hugh Walpole,0.46715980049810113
Willis_Augustus_Lee,1888,False,73609,169,61,Willis A. Lee,0.46688952930163846
Luisa_Casati,1881,False,50721,336,40,Luisa Casati,0.46636214239931845
Bertram_Ramsay,1883,False,38613,274,47,Bertram Ramsay,0.4659839266020639
Ring_Lardner,1885,False,41210,298,44,Ring Lardner,0.4658883461870332
Henry_J._Kaiser,1882,False,44501,280,45,Henry John Kaiser,0.4657864399443809
Petru_Groza,1884,False,42464,172,65,Petru Groza,0.4655258689557164
Sophie_Tucker,1884,False,38182,245,50,Sophie Tucker,0.4652697151720276
Princess_Sophie_of_Schönburg-Waldenburg,1885,False,39403,194,59,Sophie von Schönburg-Waldenburg,0.4651122421776767
Hitoshi_Imamura,1886,False,46089,132,82,Imamura Hitoshi,0.46499086500907705
Robert_L._Ghormley,1883,False,34991,234,52,Robert L. Ghormley,0.4647870621707412
Stanley_Bruce,1883,False,57496,129,79,Stanley Bruce,0.4645398146110369
Giovanni_Gronchi,1887,False,40648,182,60,Giovanni Gronchi,0.4638146890239858
Louis_Charles_Breguet,1880,False,45744,280,43,Louis Charles Breguet,0.4637169524965296
Thomas_C._Kinkaid,1888,False,50792,168,61,Thomas C. Kinkaid,0.4635298682684749
Edward_Everett_Horton,1886,False,45893,215,51,Edward Everett Horton,0.46347689546694976
Kuniaki_Koiso,1880,False,54909,357,36,Koiso Kuniaki,0.4630027770232603
George_Bancroft_(actor),1882,False,41661,186,57,George Bancroft (Schauspieler),0.46258221007671707
James_Somerville,1882,False,41511,181,58,James Fownes Somerville,0.4623267602637089
Paul_Bernays,1888,False,40760,152,68,Paul Bernays,0.4622801277146151
Paul_Ramadier,1888,False,47853,119,85,Paul Ramadier,0.4622553726886329
Oliver_Wallace,1887,False,42926,164,61,Oliver Wallace,0.4611470520202549
Edith_Evans,1888,False,39095,206,51,Edith Evans,0.46057846871904895
Alexander_Patch,1889,False,55907,210,47,Alexander M. Patch,0.46048628813887754
Arthur_Percival,1887,False,44667,172,57,Arthur Ernest Percival,0.46034688859832557
Thomas_Blamey,1884,False,58682,167,55,Thomas Blamey,0.46000920612931545
Nick_LaRocca,1889,False,33649,185,56,Nick LaRocca,0.45966656125221506
Fred_Quimby,1886,False,34726,231,47,Fred Quimby,0.4594984973631477
Vinayak_Damodar_Savarkar,1883,False,46667,220,46,Vinayak Damodar Savarkar,0.4594742352864397
Seán_T._O'Kelly,1882,False,55264,148,61,Seán Ó Ceallaigh,0.4593954104630262
Ichirō_Hatoyama,1883,False,65173,140,62,Hatoyama Ichirō,0.45925423411170774
Rómulo_Gallegos,1884,False,47116,155,60,Rómulo Gallegos,0.45911998578942087
Hidetsugu_Yagi,1886,False,40792,149,64,Yagi Hidetsugu,0.4590376154692175
Lancelot_Holland,1887,False,41606,156,61,Lancelot Holland,0.4589780711990977
Robinson_Jeffers,1887,False,58620,166,54,Robinson Jeffers,0.4589591806694141
Geoffrey_Fisher,1887,False,48739,112,83,Geoffrey Fisher,0.4589190532614077
Marion_Lorne,1883,False,38385,311,38,Marion Lorne,0.4588471320441141
Henry_Maitland_Wilson,1881,False,42301,142,66,"Henry Maitland Wilson, 1. Baron Wilson",0.45873186759077
Otto_Froitzheim,1884,False,39388,204,49,Otto Froitzheim,0.45844704482441817
Sara_Allgood,1880,False,42409,183,52,Sara Allgood,0.458046743294294
A._A._Milne,1882,False,56258,71,150,A. A. Milne,0.45716059340446497
Henry_Kent_Hewitt,1887,False,57757,96,92,H. Kent Hewitt,0.45707941737907454
Vernon_Castle,1887,False,41881,169,54,Vernon und Irene Castle,0.45675884955222645
Raymonde_de_Laroche,1882,False,38764,120,76,Élise Deroche,0.45661519210059054
John_Flynn_(minister),1880,False,42536,234,42,John Flynn,0.4561964473923654
James_Gleason,1882,False,43444,199,46,James Gleason,0.455469319425552
Broncho_Billy_Anderson,1880,False,42059,226,42,Gilbert M. Anderson,0.4549742481058712
Harry_Benjamin,1885,False,33151,204,47,Harry Benjamin,0.4549415830287241
Ben_Chifley,1885,False,56206,107,76,Ben Chifley,0.4548783704731112
August_Zaleski,1883,False,41571,129,66,August Zaleski,0.4547500939265719
Sam_Rayburn,1882,False,84175,117,62,Sam Rayburn,0.4539438713928003
Corrado_Gini,1884,False,33212,240,41,Corrado Gini,0.45360321171679296
William_Temple_(bishop),1881,False,38637,143,59,William Temple (Erzbischof),0.4536012955205483
Jean_Patou,1880,False,37566,359,32,Jean Patou,0.4531582620598529
Thomas_Sopwith,1888,False,37800,141,59,Thomas Sopwith,0.4528672063717112
Felicjan_Sławoj_Składkowski,1885,False,45516,143,56,Felicjan Sławoj Składkowski,0.4528051831981589
Isaac_C._Kidd,1884,False,33533,263,38,Isaac C. Kidd,0.4526244494804674
Takeo_Kurita,1889,False,33716,159,54,Kurita Takeo,0.4526103271694705
Kermit_Roosevelt,1889,False,30509,561,27,Kermit Roosevelt,0.45232330005796645
George_S._Kaufman,1889,False,41806,156,52,George Simon Kaufman,0.4521355876977252
Albert_Plesman,1889,False,44104,136,57,Albert Plesman,0.4513518010709723
José_Eustasio_Rivera,1888,False,47917,93,85,José Eustasio Rivera,0.45133253213017505
Francis_X._Bushman,1883,False,43293,200,42,Francis X. Bushman,0.451198784405604
George_Minot,1885,False,44771,119,64,George Richards Minot,0.45088025221092676
John_Curtin,1885,False,52067,115,64,John Curtin,0.45071962039040514
Archie_Hahn,1880,False,52287,111,66,Archie Hahn,0.4504830791498843
Adrian_Boult,1889,False,40498,175,46,Adrian Boult,0.45042521837045113
Carlo_Michelstaedter,1887,False,61240,142,50,Carlo Michelstaedter,0.4500117290070011
Richmond_K._Turner,1885,False,35955,142,55,Richmond K. Turner,0.44974663919762486
H.N._Werkman,1882,False,73089,92,74,Hendrik Nicolaas Werkman,0.4492416573644092
Alan_Goodrich_Kirk,1888,False,46946,105,69,Alan G. Kirk,0.44894849803116965
Mamie_Smith,1883,False,41593,220,38,Mamie Smith,0.4489379420345558
Jan_Kubelík,1880,False,42132,146,51,Jan Kubelík,0.448884826443049
Cathleen_Nesbitt,1888,False,44304,206,39,Cathleen Nesbitt,0.4486706435892227
Ma_Zhanshan,1885,False,55336,75,103,Ma Zhanshan,0.4486324988912764
Carlo_Bergamini_(admiral),1888,False,32134,181,45,Carlo Bergamini,0.44855254471873074
Yitzhak_HaLevi_Herzog,1888,False,36068,140,54,Isaak HaLevy Herzog,0.4484544206699088
Zoltán_Tildy,1889,False,53297,173,42,Zoltán Tildy,0.44796900736747264
William_Frawley,1887,False,45947,158,45,William Frawley,0.4468357038478136
Conrad_Helfrich,1886,False,38892,123,57,Conrad Helfrich,0.4463463095165895
Mineichi_Koga,1885,False,39637,294,31,Koga Mineichi,0.44623587266676307
Nikolai_Astrup,1880,False,42537,216,36,Nikolai Astrup,0.4457407906935926
Wyndham_Halswelle,1882,False,40872,161,44,Wyndham Halswelle,0.44548881345844016
Thomas_de_Hartmann,1885,False,51596,195,37,Thomas de Hartmann,0.44543166968685033
Leevi_Madetoja,1887,False,38634,120,57,Leevi Madetoja,0.4453090678057234
Herbert_Silberer,1882,False,53279,126,51,Herbert Silberer,0.4451783479149934
Norman_Scott_(Medal_of_Honor),1889,False,34130,125,56,Norman Scott (Admiral),0.44513695975365314
Sarah_Knauss,1880,False,36665,1515,18,Sarah Knauss,0.4448882849730706
Manuel_Prado_Ugarteche,1889,False,49742,134,48,Manuel Prado y Ugarteche,0.44433892389144974
Roy_Geiger,1885,False,52674,135,47,Roy Geiger,0.44413489504774095
Clara_Nordström,1886,False,34542,120,56,Clara Nordström,0.4436339052613466
Conrad_Aiken,1889,False,38369,128,51,Conrad Aiken,0.44311562289062456
Wladimir_Burliuk,1886,False,50344,129,48,Wladimir Dawidowitsch Burljuk,0.44298660850494004
Eleanor_Farjeon,1881,False,34618,209,36,Eleanor Farjeon,0.4429668537433675
Louis_St._Laurent,1882,False,46006,128,49,Louis Saint-Laurent,0.4428738560737075
Gunichi_Mikawa,1888,False,37267,99,65,Mikawa Gun’ichi,0.44224901022369695
Roland_Young,1887,False,38819,132,48,Roland Young,0.44175170388471996
Refik_Saydam,1881,False,60345,123,47,Refik Saydam,0.4416289664503935
Jack_Holt_(actor),1888,False,38596,192,36,Jack Holt,0.44116139155371464
Mary_Boland,1882,False,36135,146,44,Mary Boland,0.44096572836831355
James_Lightbody,1882,False,57907,106,53,James Lightbody,0.440536993340417
Herman_Bing,1889,False,37374,89,70,Herman Bing,0.4403896372492032
Henri_Dentz,1881,False,37584,122,50,Henri Fernand Dentz,0.44024557347742155
Harry_Hillman,1881,False,52874,107,53,Harry Hillman,0.4402209721538465
Louis_Chauvin,1881,False,29817,275,30,Louis Chauvin,0.44005311065578917
Charles_Williams_(UK_writer),1886,False,32251,165,40,"Charles Williams (Schriftsteller, 1886)",0.4398303652427821
William_Joseph_Simmons,1880,False,38556,310,27,William Joseph Simmons,0.4393947199947966
Anna_Q._Nilsson,1888,False,41057,152,40,Anna Q. Nilsson,0.43898936413525635
Watsuji_Tetsuro,1889,False,51255,121,46,Watsuji Tetsurō,0.43878442321563466
Sisavang_Vong,1885,False,36403,129,46,Sisavang Vong,0.4384783503652705
Georges_Imbert,1884,False,31780,213,33,Georges Imbert,0.4382811949801574
Jeanne_de_Salzmann,1889,False,33018,119,50,Jeanne de Salzmann,0.4382014826930554
Florence_Lawrence,1886,False,39921,159,38,Florence Lawrence,0.4378470657357771
Aleksandras_Stulginskis,1885,False,44368,90,62,Aleksandras Stulginskis,0.4377680768689652
Zhou_Zuoren,1885,False,43870,82,69,Zhou Zuoren,0.43749542672114283
Robert_Esnault-Pelterie,1881,False,41464,106,52,Robert Esnault-Pelterie,0.4371327943037411
Moroni_Olsen,1889,False,41311,166,36,Moroni Olsen,0.4369090896762022
Pearl_White,1889,False,43259,137,41,Pearl White,0.4368626615689065
Roberto_María_Ortiz,1886,False,36562,141,41,Roberto María Ortiz,0.43654505621107875
Ion_Inculeț,1884,False,47757,64,93,Ion Inculeț,0.43629670659464864
Angelo_Iachino,1889,False,32516,143,41,Angelo Iachino,0.4360783070864804
Thomas_Selfridge,1882,False,31982,172,36,Thomas E. Selfridge,0.435996476010055
Phraya_Manopakorn_Nititada,1884,False,46785,104,50,Phraya Manopakorn Nititada,0.43568359295542314
Ernest_Marsden,1889,False,33462,115,48,Ernest Marsden,0.4352531251871826
Harald_Sverdrup_(oceanographer),1888,False,41097,86,62,Harald Ulrik Sverdrup,0.4351698368913695
Anton_Köllisch,1888,False,33168,254,28,Anton Köllisch,0.43477202599474946
Edna_May_Oliver,1883,False,41380,130,41,Edna May Oliver,0.4345956896516921
Sara_Teasdale,1884,False,37559,127,42,Sara Teasdale,0.43406732018535915
Hasui_Kawase,1883,False,41757,123,42,Kawase Hasui,0.43372077223807365
Kosaku_Yamada,1886,False,39252,104,48,Yamada Kōsaku,0.4325897542016006
Tarsila_do_Amaral,1886,False,35422,135,39,Tarsila do Amaral,0.4323882499249101
Harry_Ferguson,1884,False,41941,235,27,Harry Ferguson,0.4323320466995285
Lloyd_Fredendall,1883,False,39558,175,32,Lloyd Fredendall,0.4322574840980578
George_Kenner,1888,False,43835,90,53,George Kenner,0.4315692049634022
"George_Monckton-Arundell,_8th_Viscount_Galway",1882,False,59607,56,94,"George Monckton-Arundell, 8. Viscount Galway",0.4313825178621158
Kaarel_Eenpalu,1888,False,48312,76,62,Kaarel Eenpalu,0.4308911465071414
John_Foulds,1880,False,35366,120,41,John Foulds,0.430386392269853
Lauri_Kristian_Relander,1883,False,44562,81,56,Lauri Kristian Relander,0.429303959253454
Suzanne_Duchamp,1889,False,36862,93,50,Suzanne Duchamp,0.4292410970623948
Nicholas_Schenck,1881,False,28810,171,32,Nicholas Schenck,0.42895033686066936
Alberto_di_Jorio,1884,False,36354,72,66,Alberto di Jorio,0.4284650728651586
Michał_Sopoćko,1888,False,44817,100,44,Michał Sopoćko,0.428337886965927
Friedrich_Lahrs,1880,False,33252,91,51,Friedrich Lahrs,0.42831936385968833
Troy_H._Middleton,1889,False,34776,127,37,Troy H. Middleton,0.42756883028944875
Clive_Bell,1881,False,31655,176,30,Clive Bell,0.4272470958349044
Henri_Fabre,1882,False,32284,122,38,Henri Fabre,0.42677658995820783
Ture_Nerman,1886,False,35221,69,67,Ture Nerman,0.42676318712241307
Andrew_Higgins,1886,False,35269,128,36,Andrew Jackson Higgins,0.4266564732911348
Harry_Ruby,1885,False,40038,103,42,Harry Ruby,0.4266140122783295
Ralph_DePalma,1884,False,38155,110,40,Ralph DePalma,0.426597929557751
Norman_Thomas,1884,False,36329,137,34,Norman Thomas,0.42649579720207276
Ralph_Craig,1889,False,48637,101,41,Ralph Craig,0.4262470082076425
Ferenc_Münnich,1886,False,49709,131,33,Ferenc Münnich,0.42582735103664976
Eleazar_López_Contreras,1883,False,42037,120,36,Eleazar López Contreras,0.425688436222133
Harold_Rainsford_Stark,1880,False,42713,259,23,Harold R. Stark,0.4255520574744582
Leonid_Kulik,1883,False,35707,84,50,Leonid Alexejewitsch Kulik,0.42473641030252646
Charles_Sheeler,1883,False,39353,163,29,Charles Sheeler,0.42470710589157673
Sam_Langford,1883,False,33788,157,30,Sam Langford,0.4241190409314867
Yusif_Vazir_Chamanzaminli,1887,False,34873,102,41,Yusif Vəzir Çəmənzəminli,0.4241057986193512
Charles_Reidpath,1889,False,70485,78,47,Charles Reidpath,0.42401612877051964
Lascelles_Abercrombie,1881,False,41864,114,36,Lascelles Abercrombie,0.4237779997819195
Xul_Solar,1887,False,31751,157,30,Xul Solar,0.4236290931507846
Raimu,1883,False,43845,200,25,Raimu,0.4234867830101668
William_Hood_Simpson,1888,False,48049,135,31,William Hood Simpson,0.4234533601499522
Daniel_Jones_(phonetician),1881,False,31078,156,30,Daniel Jones (Sprachwissenschaftler),0.4232526311022528
Clara_Blandick,1880,False,42800,208,24,Clara Blandick,0.42204147933635366
Louis_Wagner,1882,False,38794,92,42,Louis Wagner,0.4219065491015518
Charles_Tomlinson_Griffes,1884,False,38773,97,40,Charles Tomlinson Griffes,0.42187343392771254
Elsa_Maxwell,1883,False,36206,291,21,Elsa Maxwell,0.4215780835748558
Owen_Moore,1886,False,37419,148,29,Owen Moore,0.4211992250150307
Ralph_Hartley,1888,False,31680,107,37,Ralph Hartley,0.42056650440128285
Ado_Birk,1883,False,49157,86,41,Aadu Birk,0.4198785888203232
Antoinette_Perry,1888,False,31278,121,33,Antoinette Perry,0.4195282473195789
Louis_Durey,1888,False,36052,103,36,Louis Durey,0.4188729744542595
Marie_Vassilieff,1884,False,39168,85,42,Marie Vassilieff,0.41877315506882073
"Terry_de_la_Mesa_Allen,_Sr.",1888,False,28003,166,27,Terry de la Mesa Allen,0.4187673967080481
Marjorie_Rambeau,1889,False,41309,76,46,Marjorie Rambeau,0.4182328433999849
Takeo_Itō,1889,False,33921,49,88,Itō Takeo,0.41812594002713344
Reggie_Walker,1889,False,40929,92,38,Reggie Walker,0.4179242930578862
Monty_Woolley,1888,False,40501,101,35,Monty Woolley,0.4176954664419752
Richard_Cramer,1889,False,33927,92,38,Richard Cramer (Schauspieler),0.4165267297565207
Volodymyr_Vynnychenko,1880,False,46343,95,35,Wolodymyr Wynnytschenko,0.41633626362562864
Dimitrios_Semsis,1883,False,45200,51,72,Dimitris Semsis (Salonikios),0.41618284557981555
Harukichi_Hyakutake,1888,False,33744,91,38,Hyakutake Seikichi,0.4160582627155467
Ants_Piip,1884,False,55413,83,38,Ants Piip,0.4159520587958432
Subramania_Bharati,1882,False,44166,88,37,Subramaniya Bharati,0.4155298654116544
Chester_Conklin,1886,False,36407,160,25,Chester Conklin,0.41538337272278913
Leon_Schlesinger,1884,False,34369,120,30,Leon Schlesinger,0.4152452747116504
Sylvanus_Morley,1883,False,37429,74,44,Sylvanus Morley,0.4145704356150629
William_L._Laurence,1888,False,35861,220,21,William L. Laurence,0.4141566357630004
Pedro_Pablo_Ramírez,1884,False,35966,127,28,Pedro Pablo Ramírez,0.41398594902686375
George_Fitzmaurice,1885,False,36121,96,34,George Fitzmaurice,0.4135878802559851
Eurico_Gaspar_Dutra,1883,False,39868,106,31,Eurico Gaspar Dutra,0.4135703816086393
Alfred_Carlton_Gilbert,1884,False,41220,93,34,Alfred Gilbert,0.4133392517574113
Toivo_Kuula,1883,False,30288,111,31,Toivo Kuula,0.4131852636501602
Olga_Petrova,1884,False,37686,88,36,Olga Petrova,0.4131570678819164
Paul_Pilgrim,1883,False,38673,96,33,Paul Pilgrim,0.4126911848540492
Léon_Noël,1888,False,35480,85,37,Léon Noël,0.41256508075115256
Albert_Hill_(athlete),1889,False,47919,85,35,Albert Hill,0.4122260626136855
Margaret_Caroline_Anderson,1886,False,39238,179,22,Margaret Anderson,0.41186845101624
Robert_L._Eichelberger,1886,False,53335,151,23,Robert Eichelberger,0.41153308579462117
Homer_S._Ferguson,1889,False,40335,55,56,Homer S. Ferguson,0.4107201941394824
Robert_Kerr_(athlete),1882,False,37318,74,40,Robert Kerr (Leichtathlet),0.4106254400926644
Alfred_Noyes,1880,False,33752,89,34,Alfred Noyes,0.41020209780839867
James_Cruze,1884,False,36332,83,35,James Cruze,0.40932706330221164
Konstantinos_Tsaldaris,1884,False,44036,92,31,Konstantinos Tsaldaris,0.4090411637016611
Gaby_Deslys,1881,False,33406,86,34,Gaby Deslys,0.4088022978866782
John_R._Sinnock,1888,False,33154,60,49,John R. Sinnock,0.4085773747557986
José_Mendes_Cabeçadas,1883,False,42070,105,28,José Mendes Cabeçadas Júnior,0.4085392569987006
Gisela_Richter,1882,False,39523,111,27,Gisela M. A. Richter,0.4081842070035977
Sadayoshi_Tanabe,1888,False,33647,98,30,Tanabe Sadayoshi,0.407892088404124
Noah_Beery,1882,False,35973,157,22,Noah Beery senior,0.40738236671696804
John_Alexander_Douglas_McCurdy,1886,False,44066,70,38,John Alexander Douglas McCurdy,0.4072973924860036
Vincent_Massey,1887,False,43559,91,30,Vincent Massey,0.40697757557311154
Tris_Speaker,1888,False,50667,77,33,Tris Speaker,0.40598344168261596
Frederick_J._Horne,1880,False,103533,88,27,Frederick J. Horne,0.4059699098194623
Will_Hay,1888,False,47738,57,45,Will Hay,0.4055513630551842
Damon_Runyon,1880,False,49796,117,24,Damon Runyon,0.40527586202833155
Margaret_Wycherly,1881,False,36309,98,28,Margaret Wycherly,0.40504201174370547
Walter_Johnson,1887,False,50106,102,26,Walter Johnson,0.4048915689202605
W._O._Bentley,1888,False,32446,225,18,Walter Owen Bentley,0.4041239252783243
Knute_Rockne,1888,False,29769,172,20,Knute Rockne,0.40296609793250193
Aritomo_Gotō,1888,False,33856,82,31,Gotō Aritomo,0.4028181722784377
Mary_Nash,1884,False,39749,132,22,Mary Nash,0.4027727104780104
"Charles_M._Cooke,_Jr.",1886,False,33409,71,35,Charles M. Cooke,0.40243905505189437
Ernest_Palmer_(American_cinematographer),1885,False,40178,77,31,Ernest Palmer,0.4015571503481003
"Arthur_Schlesinger,_Sr.",1888,False,37869,64,37,"Arthur M. Schlesinger, Sr.",0.4013177669394712
Douglass_Dumbrille,1889,False,40883,108,24,Douglass Dumbrille,0.401263623909072
Amedeo_Maiuri,1886,False,41608,95,26,Amedeo Maiuri,0.40112374367043424
Masao_Maruyama_(Japanese_Army_officer),1889,False,31868,69,35,Maruyama Masao (Generalleutnant),0.40092833566320435
Christy_Mathewson,1880,False,58758,93,25,Christy Mathewson,0.4005833197671462
Eddie_Collins,1887,False,50260,62,35,Eddie Collins,0.3994948207729674
Papa_Celestin,1884,False,32958,81,29,Papa Celestin,0.3990310616277364
John_Lavarack,1885,False,52618,58,36,John Lavarack,0.3980609872462152
Al_Christie,1881,False,37017,80,28,Al Christie,0.397682776965286
Jack_Hobbs,1882,False,40615,121,21,Jack Hobbs (Cricketspieler),0.39750704093610334
Lotte_Herrlich,1883,False,29939,96,25,Lotte Herrlich,0.39721439023438876
Yitzhak_Baer,1888,False,36695,69,31,Yitzhak Baer,0.39656877555369296
Abe_Attell,1883,False,31203,105,23,Abe Attell,0.39617231214730875
John_L._Lewis,1880,False,38411,57,36,John L. Lewis (Gewerkschafter),0.39524800280476075
Tom_Brown_(trombonist),1888,False,35500,72,29,Tom Brown (Jazzmusiker),0.394991395944321
George_Preca,1880,False,33383,60,34,George Preca,0.39415013403668897
Tôn_Đức_Thắng,1888,False,42077,100,22,Tôn Đức Thắng,0.3941265374980441
Enrico_Mizzi,1885,False,38606,68,29,Enrico Mizzi,0.39328361519762833
Elizabeth_Craig_(writer),1883,False,30353,55,37,Elizabeth Craig (Köchin),0.39318893094068436
Lynn_Fontanne,1887,False,42601,90,23,Lynn Fontanne,0.39297797028349596
Alexander_Woollcott,1887,False,40531,113,20,Alexander Woollcott,0.3925081882376949
Grantland_Rice,1880,False,41385,62,30,Grantland Rice,0.3915127659163858
William_Edmunds_(actor),1886,False,40256,87,23,William Edmunds,0.39141770222690575
Ugo_Pasquale_Mifsud,1889,False,40666,67,28,Ugo Pasquale Mifsud,0.39140505127781083
Anne_Bauchens,1882,False,33977,66,29,Anne Bauchens,0.39124157143679594
Earle_Page,1880,False,47124,67,27,Earle Page,0.39063138778151746
B._C._Forbes,1880,False,32154,122,19,B. C. Forbes,0.39035442168000317
Liberato_Pinto,1880,False,32541,82,24,Liberato Ribeiro Pinto,0.3901063678061807
Grover_Cleveland_Alexander,1887,False,45877,59,30,Pete Alexander,0.3900937046686776
Samuel_Berger_(boxer),1884,False,35169,80,24,Samuel Berger,0.3897256936369403
Ben-Zion_Dinur,1884,False,33303,75,25,Ben-Zion Dinur,0.3890267559396241
Lima_Barreto,1881,False,53071,65,26,Afonso Henriques de Lima Barreto,0.38835543930477434
Frederick_Lane,1888,False,33421,70,26,Frederick Lane,0.388340417849913
Philip_Francis_Nowlan,1888,False,30667,71,26,Philip Francis Nowlan,0.38831311956722836
Alberto_Gerchunoff,1883,False,38398,58,30,Alberto Gerchunoff,0.3882459638330283
G._Murray_Hulbert,1881,False,52770,34,55,George Murray Hulbert,0.3869649999507088
Harold_Saxton_Burr,1889,False,34003,78,23,Harold Saxton Burr,0.3864144864765648
Walter_Nash,1882,False,43775,61,27,Walter Nash,0.3863998420556926
Yehezkel_Abramsky,1886,False,38564,75,23,Yehezkel Abramsky,0.3857902906430915
James_Stephenson,1889,False,34966,70,24,James Stephenson,0.3847354449708305
Alison_Uttley,1884,False,34245,56,29,Alison Uttley,0.38454307690994605
Peter_Bocage,1887,False,31499,51,32,Peter Bocage,0.38418798526358733
Joyce_Cary,1888,False,41183,95,19,Joyce Cary,0.3840552073503828
Franklin_Pierce_Adams,1881,False,39875,104,18,Franklin Pierce Adams,0.38359915560984525
Ethel_Clayton,1882,False,36005,61,26,Ethel Clayton,0.38341823267309444
Robert_C._Giffen,1886,False,35677,64,25,Robert C. Giffen,0.38340551900927594
Robert_Alfred_Theobald,1884,False,32744,53,30,Robert Alfred Theobald,0.38338858504316314
Lynn_Thorndike,1882,False,31639,75,22,Lynn Thorndike,0.3822428381757483
Jean_Alexandre_Barré,1880,False,29475,92,19,Jean-Alexandre Barré,0.38088446415403565
"George_""Gabby""_Hayes",1885,False,34857,135,15,George Hayes (Schauspieler),0.3789983625902068
Charles_Reisner,1887,False,43591,85,18,Charles Reisner,0.37761756592259604
Edgar_J._Kaufmann,1885,False,33215,247,12,Edgar J. Kaufmann,0.3774118810832497
Kathleen_Howard,1884,False,37847,59,23,Kathleen Howard,0.37655577956337904
C._K._Scott-Moncrieff,1889,False,45482,57,23,Charles Kenneth Scott Moncrieff,0.37628253826172986
Milton_Sills,1882,False,34228,71,20,Milton Sills,0.3757774189945394
Muriel_Hazel_Wright,1889,False,28889,79,19,Muriel Hazel Wright,0.3756748257533215
Armas_Launis,1884,False,43017,49,26,Armas Launis,0.37542665245597173
Armand_Annet,1888,False,31098,75,19,Armand Léon Annet,0.37435330986443816
Forrest_Smithson,1884,False,35979,53,24,Forrest Smithson,0.3739842872089203
Pauline_Frederick,1883,False,38626,58,22,Pauline Frederick,0.37382923804906376
Kanoko_Okamoto,1889,False,33445,67,20,Okamoto Kanoko,0.3735444620876505
Jacques_Majorelle,1886,False,35583,259,11,Jacques Majorelle,0.3719146093125152
Alcide_Nunez,1884,False,33133,51,24,Alcide Nunez,0.3719083651407152
Henry_F._Phillips,1889,False,26096,128,14,Henry F. Phillips,0.3711506179152454
Oliver_Kirk,1884,False,39687,56,21,Oliver Kirk,0.37030962296864783
Antoni_Łomnicki,1881,False,28653,55,22,Antoni Łomnicki,0.36994416148866327
Suzanne_Bianchetti,1889,False,38376,67,18,Suzanne Bianchetti,0.36870403881357866
George_Jean_Nathan,1882,False,34495,74,17,George Jean Nathan,0.36831614027386717
Gustavo_Jiménez,1886,False,34217,51,22,Gustavo Jiménez,0.3680084586827342
Oren_E._Long,1889,False,34898,53,21,Oren E. Long,0.3674023053567522
Pier_Ruggero_Piccio,1880,False,30197,40,27,Pier Ruggero Piccio,0.366017324950724
Petros_Voulgaris,1884,False,30495,55,20,Petros Voulgaris,0.3656217323150549
Marcel-Bruno_Gensoul,1880,False,26547,71,17,Marcel Gensoul,0.36534873585227867
Sam_Crawford,1880,False,41020,49,21,Sam Crawford,0.3651896115107597
Julio_Lozano_Díaz,1885,False,34939,55,19,Julio Lozano Díaz,0.3638048989418808
Michael_Fekete,1886,False,34318,46,22,Michael Fekete,0.3637995118555294
Elsie_Ferguson,1883,False,35874,47,21,Elsie Ferguson,0.36273741398670617
Ilo_Wallace,1888,False,31508,64,16,Ilo Wallace,0.3593983066025956
Alessandro_Guidoni,1880,False,35113,43,21,Alessandro Guidoni,0.3589340204267518
Florence_Easton,1882,False,34866,59,16,Florence Easton,0.357131683901756
Armand_J._Piron,1888,False,30390,44,20,Armand J. Piron,0.3567625224616811
René_Cresté,1881,False,30606,41,21,René Cresté,0.35615651059206743
Jean_Decoux,1884,False,35104,99,12,Jean Decoux,0.35542551590786353
"John_W._Wilcox,_Jr.",1882,False,30752,84,13,"John W. Wilcox, Jr.",0.35535314513505345
Harry_Hooper,1887,False,40818,46,18,Harry Hooper (Baseballspieler),0.35496634364931573
Dick_Elliott,1886,False,40183,78,13,Dick Elliott,0.3545839102747662
Eric_Coates,1886,False,35553,118,11,Eric Coates,0.3539333420039088
Alfonso_López_Pumarejo,1886,False,40312,91,12,Alfonso López Pumarejo,0.35381435598478606
Walter_Terence_Stace,1886,False,29436,53,16,Walter Terence Stace,0.35235443280444007
Fritz_Leiber_(Sr.),1882,False,39137,71,13,Fritz Leiber senior,0.35153847382002945
Dorothy_Campbell,1883,False,29626,72,13,Dorothy Campbell,0.3504803672709529
Aurelio_Mosquera,1883,False,43301,58,14,Aurelio Mosquera Narváez,0.3499873385127611
Manuel_Pérez_y_Curis,1884,False,30521,36,20,Manuel Pérez y Curis,0.348317881585169
Arthur_E._Andersen,1885,False,31494,129,10,Arthur E. Andersen,0.3482802515227485
Florence_La_Badie,1888,False,38029,54,14,Florence La Badie,0.34685734617726083
Rafael_Arévalo_Martínez,1884,False,33243,55,14,Rafael Arévalo Martínez,0.3467947248281085
Belle_da_Costa_Greene,1883,False,28946,55,14,Belle da Costa Greene,0.34605854842323996
Harold_Hitz_Burton,1888,False,41571,106,10,Harold Hitz Burton,0.3449218702711474
Richard_S._Edwards,1885,False,51636,63,12,Richard S. Edwards junior,0.3440263736051036
Robert_L._Thornton,1880,False,25044,60,13,Robert Lee Thornton,0.34378263803589754
Olav_Aukrust,1883,False,33131,50,14,Olav Aukrust,0.3434424586651195
Forrest_Taylor,1883,False,30351,46,14,Forrest Taylor,0.3399972163494045
Michael_Somogyi,1883,False,30394,51,13,Michael Somogyi,0.33938258122904774
Z._D._Mangoaela,1883,False,26882,28,20,Zakea Dolphin Mangoaela,0.3362953210066854
Jesse_Pennington,1883,False,26912,47,13,Jesse Pennington,0.33592527532144517
Avra_Theodoropoulou,1880,False,28903,37,15,Avra Theodoropoulou,0.335196495852046
Zoë_Akins,1886,False,33626,76,10,Zoë Akins,0.33510470609340776
Kristian_Hellström,1880,False,30394,35,15,Kristian Hellström,0.333221212516669
Cliff_Sterrett,1883,False,33536,47,12,Cliff Sterrett,0.33228881180899705
Mary_Webb,1881,False,38878,54,11,Mary Gladys Webb,0.3321453789817858
Alf_Common,1880,False,39769,53,11,Alf Common,0.33165236288714833
Thomas_Sigismund_Stribling,1881,False,35506,44,12,Thomas Sigismund Stribling,0.33027283027895793
Shigeyoshi_Inoue,1889,False,37704,81,9,Inoue Shigeyoshi,0.32958922261103113
Frank_Christian_(trumpeter),1887,False,28115,52,11,Frank Christian,0.3293863038792115
Porfirio_Barba-Jacob,1883,False,36233,47,11,Porfirio Barba Jacob,0.32729253180705264
Murray_Kinnell,1889,False,36000,57,10,Murray Kinnell,0.32713431535606285
Monte_Attell,1885,False,25819,33,12,Monte Attell,0.31825693115237547
Nikolai_Cholodny,1882,False,47746,92,7,Nikolai Grigorjewitsch Cholodny,0.3131734449044339
Otto_Dowling,1881,False,34845,36,10,Otto Dowling,0.31207859350045225
Henry_Fillmore,1881,False,28815,103,6,Henry Fillmore,0.29947473185697593
Nathan_Post,1881,False,32906,30,8,Nathan Post,0.2912889679216075
Royal_H._Weller,1881,False,48495,32,7,Royal Hurlburt Weller,0.28548465324995526
Edward_Hanson,1889,False,34529,32,7,Edward Hanson,0.28432543604573035
Monteiro_Lobato,1882,False,31668,102,5,Monteiro Lobato,0.2816515264890129
Charles_Armijo_Woodruff,1884,False,32807,37,6,Charles Armijo Woodruff,0.2766141772216426
MacGillivray_Milne,1882,False,35849,26,6,MacGillivray Milne,0.26670954471457126
Percy_Marmont,1883,False,35960,23,4,Percy Marmont,0.2295923790746442
Reginald_Farrer,1880,False,61218,0,69,Reginald Farrer,0.1270461748261396
Tommy_Burns_(boxer),1881,False,35438,0,46,Tommy Burns (Boxer),0.12534429528282295
Nicholas_Charnetsky,1884,False,44176,0,33,Mykolai Tscharnezkyj,0.124185808266362
Edwin_Balmer,1883,False,31956,0,33,Edwin Balmer,0.12397278538949506
Inez_Milholland,1886,False,46984,0,22,Inez Milholland,0.12230101177986635
"Bruce_Fraser,_1st_Baron_Fraser_of_North_Cape",1888,False,63566,0,17,"Bruce Fraser, 1. Baron Fraser of North Cape",0.12100850018349814
Giuseppe_Mario_Bellanca,1886,False,34944,0,18,Giuseppe Bellanca,0.12099455010589842
Oscar_Griswold,1886,False,38199,0,11,Oscar Griswold,0.1176351135636786
Royal_E._Ingersoll,1883,False,45116,0,9,Royal E. Ingersoll,0.11597630479595561
Adelina_Domingues,1888,False,33486,0,9,Adelina Domingues,0.11580632728735554
Florence_Turner,1885,False,38804,0,8,Florence Turner,0.11473446015122601
Percy_Kilbride,1888,False,38097,0,8,Percy Kilbride,0.11472416580197133
Marie-Louise_Meilleur,1880,False,36336,0,7,Marie-Louise Meilleur,0.11325056801531584
María_Capovilla,1889,False,43526,0,6,María Capovilla,0.11146299489487613
Hubert_Latham,1883,False,45624,0,5,Hubert Latham,0.10889620595947715
Bessie_Barriscale,1884,False,35936,0,4,Bessie Barriscale,0.10492399993590762
Ernest_Pingoud,1887,False,35032,0,4,Ernest Pingoud,0.10491188798752761
Hawthorne_C._Gray,1889,,1,1,1,?,0.05448825167540282
Beatrice_Kerr,1887,,1,1,1,?,0.05448825167540282
William_A._Glassford,1886,,1,1,1,?,0.05448825167540282
R._Williams_Parry,1884,,1,1,1,?,0.05448825167540282
Tenby_Davies,1884,,1,1,1,?,0.05448825167540282
William_D._Francis,1889,,1,1,1,?,0.05448825167540282
Dutch_Sterrett,1889,,1,1,1,?,0.05448825167540282
C._E._Woolman,1889,,1,1,1,?,0.05448825167540282
Tutt_Brothers,1882,,1,1,1,?,0.05448825167540282
Stuart_Paton,1883,,1,1,1,?,0.05448825167540282
María_Beatriz_del_Rosario_Arroyo,1884,,1,1,1,?,0.05448825167540282
Ya'akov_Cohen_(writer),1881,,1,1,1,?,0.05448825167540282
Arch_McCarthy,1881,,1,1,1,?,0.05448825167540282
Emma_Asson,1889,,1,1,1,?,0.05448825167540282
Valli_Valli,1882,,1,1,1,?,0.05448825167540282
Mario_Talavera,1885,,1,1,1,?,0.05448825167540282
Frank_Burke_(baseball),1880,,1,1,1,?,0.05448825167540282
Donald_B._Beary,1888,,1,1,1,?,0.05448825167540282
Reşit_Süreyya_Gürsey,1889,,1,1,1,?,0.05448825167540282
Sōjin_Kamiyama,1884,,1,1,1,?,0.05448825167540282
Orrick_Johns,1887,,1,1,1,?,0.05448825167540282
Thomas_Quinlan_(impresario),1881,,1,1,1,?,0.05448825167540282
William_Whitworth,1884,,1,1,1,?,0.05448825167540282
István_Kühár,1887,,1,1,1,?,0.05448825167540282
Antonina_De_Angelis,1880,,1,1,1,?,0.05448825167540282
Zeng_Junchen,1888,,1,1,1,?,0.05448825167540282
Rudolph_Palm,1880,,1,1,1,?,0.05448825167540282
Johanna_Westerdijk,1883,,1,1,1,?,0.05448825167540282
George_Barker_(painter),1882,,1,1,1,?,0.05448825167540282
Marius_Canard,1888,,1,1,1,?,0.05448825167540282
Ewart_Astill,1888,,1,1,1,?,0.05448825167540282
Siegmund_Glücksmann,1884,,1,1,1,?,0.05448825167540282
Michael_Considine,1885,,1,1,1,?,0.05448825167540282
Eduard_C._Lindeman,1885,,1,1,1,?,0.05448825167540282
Aketo_Nakamura,1889,,1,1,1,?,0.05448825167540282
Helen_Hoyt,1887,,1,1,1,?,0.05448825167540282
Gleb_W._Derujinsky,1888,,1,1,1,?,0.05448825167540282
Godfrey_Chevalier,1889,,1,1,1,?,0.05448825167540282
Ola_Solberg,1886,,1,1,1,?,0.05448825167540282
William_R._Munroe,1886,,1,1,1,?,0.05448825167540282
Mariano_Andreu,1888,,1,1,1,?,0.05448825167540282
Chaturbhuj_Sahay,1883,,1,1,1,?,0.05448825167540282
George_Gaul,1885,,1,1,1,?,0.05448825167540282
Edgar_Stehli,1884,,1,1,1,?,0.05448825167540282
Tomoshige_Samejima,1889,,1,1,1,?,0.05448825167540282
Markus_Reiner,1886,,1,1,1,?,0.05448825167540282
Dorothy_Donnelly,1880,,1,1,1,?,0.05448825167540282
Dimitrana_Ivanova,1881,,1,1,1,?,0.05448825167540282
Alice_Hollister,1886,,1,1,1,?,0.05448825167540282
Louise_Marion_Bosworth,1881,,1,1,1,?,0.05448825167540282
John_Palm,1885,,1,1,1,?,0.05448825167540282
Andrew_Watson_Myles,1884,,1,1,1,?,0.05448825167540282
Ferenc_Talányi,1883,,1,1,1,?,0.05448825167540282
George_Bagration_of_Mukhrani,1884,,1,1,1,?,0.05448825167540282
"Max_Moody,_Sr.",1883,,1,1,1,?,0.05448825167540282
Charlie_Parker_(cricketer),1882,,1,1,1,?,0.05448825167540282
T._Sathasiva_Iyer,1882,,1,1,1,?,0.05448825167540282
Heikki_Ritavuori,1880,,1,1,1,?,0.05448825167540282
Gengo_Hyakutake,1882,,1,1,1,?,0.05448825167540282
Margaret_Henley,1888,,1,1,1,?,0.05448825167540282
Oscar_A._C._Lund,1885,,1,1,1,?,0.05448825167540282
Jessie_Aspinall,1880,,1,1,1,?,0.05448825167540282
Jacob_Fichman,1881,,1,1,1,?,0.05448825167540282
Herb_Byrne,1887,,1,1,1,?,0.05448825167540282
Nicolette_Bruining,1886,,1,1,1,?,0.05448825167540282
Wilhelm_Fritz_von_Roettig,1888,,1,1,1,?,0.05448825167540282
Stephen_Galatti,1888,,1,1,1,?,0.05448825167540282
Benjamin_McCandlish,1886,,1,1,1,?,0.05448825167540282
Leo_Otis_Colbert,1883,,1,1,1,?,0.05448825167540282
John_Willard_(playwright),1885,,1,1,1,?,0.05448825167540282
Oswald_Short,1883,,1,1,1,?,0.05448825167540282
Heisuke_Abe,1886,,1,1,1,?,0.05448825167540282
Naum_Torbov,1880,,1,1,1,?,0.05448825167540282
Doris_Große,1884,,1,1,1,?,0.05448825167540282
Jacobo_Palm,1887,,1,1,1,?,0.05448825167540282
Zerna_Sharp,1889,,1,1,1,?,0.05448825167540282
Ethel_May_Halls,1882,,1,1,1,?,0.05448825167540282
George_H._Plympton,1889,,1,1,1,?,0.05448825167540282
Albert_Orsborn,1886,,1,1,1,?,0.05448825167540282
Lucy_Tayiah_Eads,1888,,1,1,1,?,0.05448825167540282
Percy_C._Mather,1882,,1,1,1,?,0.05448825167540282
Giuseppe_Tellera,1882,,1,1,1,?,0.05448825167540282
Carroll_McComas,1886,,1,1,1,?,0.05448825167540282
James_P._Boyle,1885,,1,1,1,?,0.05448825167540282
Pete_Wendling,1888,,1,1,1,?,0.05448825167540282
William_T._Bovie,1882,,1,1,1,?,0.05448825167540282
Herbert_Strudwick,1880,,1,1,1,?,0.05448825167540282
Ioannis_Demestichas,1882,,1,1,1,?,0.05448825167540282
John_Morton-Finney,1889,,1,1,1,?,0.05448825167540282
Lee_W._Stanley,1885,,1,1,1,?,0.05448825167540282
Andrej_Bicenko,1886,,1,1,1,?,0.05448825167540282
Raymond_DeWalt,1885,,1,1,1,?,0.05448825167540282
Luis_Cluzeau_Mortet,1888,,1,1,1,?,0.05448825167540282
George_Shiels,1886,,1,1,1,?,0.05448825167540282
William_Douglas_Cook,1884,,1,1,1,?,0.05448825167540282
John_van_Melle,1887,,1,1,1,?,0.05448825167540282
Kojo_Tovalou_Houénou,1887,,1,1,1,?,0.05448825167540282
Edwin_Keppel_Bennett,1887,,1,1,1,?,0.05448825167540282
Frank_Tarrant,1880,,1,1,1,?,0.05448825167540282
M._Louise_Gross,1884,,1,1,1,?,0.05448825167540282
Benjamin_(Fedchenkov),1880,,1,1,1,?,0.05448825167540282
Richard_Maury,1882,,1,1,1,?,0.05448825167540282
Ferenc_Oslay,1883,,1,1,1,?,0.05448825167540282
Claude_Roger-Marx,1888,,1,1,1,?,0.05448825167540282
Thakur_Anukulchandra,1888,,1,1,1,?,0.05448825167540282
Robert_James_Hudson,1885,,1,1,1,?,0.05448825167540282
Harry_Sunderland,1889,,1,1,1,?,0.05448825167540282
"Enea_Bossi,_Sr.",1888,,1,1,1,?,0.05448825167540282
Olivia_Nordgren,1880,,1,1,1,?,0.05448825167540282
Loyal_Blaine_Aldrich,1884,,1,1,1,?,0.05448825167540282
Merrill_C._Meigs,1883,,1,1,1,?,0.05448825167540282
Isabel_J._Cox,1882,,1,1,1,?,0.05448825167540282
Nicholas_H._Heck,1882,,1,1,1,?,0.05448825167540282
Charles_Exeter_Devereux_Crombie,1880,,1,1,1,?,0.05448825167540282
Cedric_Holland,1889,,1,1,1,?,0.05448825167540282
Leonie_von_Meusebach–Zesch,1882,,1,1,1,?,0.05448825167540282
Robert_McKeen,1884,,1,1,1,?,0.05448825167540282
Violet_MacMillan,1887,,1,1,1,?,0.05448825167540282
Richard_C._Saufley,1884,,1,1,1,?,0.05448825167540282
Shiro_Kawase,1889,,1,1,1,?,0.05448825167540282
John_H._Hester,1886,,1,1,1,?,0.05448825167540282
Bede_Fanning,1885,,1,1,1,?,0.05448825167540282
"Zdzisław_Żygulski,_Sr.",1888,,1,1,1,?,0.05448825167540282
Mike_Brady_(golfer),1887,,1,1,1,?,0.05448825167540282
Kirk_Bryan_(geologist),1888,,1,1,1,?,0.05448825167540282
Catherine_Schleimer-Kill,1884,,1,1,1,?,0.05448825167540282
Jessie_Arms_Botke,1883,,1,1,1,?,0.05448825167540282
Raymond_Stanton_Patton,1882,,1,1,1,?,0.05448825167540282
Chen_Xiefen,1883,,1,1,1,?,0.05448825167540282
Campbell_Tait,1886,,1,1,1,?,0.05448825167540282
Vin_Coutie,1881,,1,1,1,?,0.05448825167540282
Wyncie_King,1884,,1,1,1,?,0.05448825167540282
Harry_A._Marmer,1885,,1,1,1,?,0.05448825167540282
Rachel_Katznelson-Shazar,1885,,1,1,1,?,0.05448825167540282
Elisabeth_Tamm,1880,,1,1,1,?,0.05448825167540282
Paltiel_Daykan,1885,,1,1,1,?,0.05448825167540282
Tore_Ørjasæter,1886,,1,1,1,?,0.05448825167540282
Maude_Farris-Luse,1887,,1,1,1,?,0.05448825167540282
Zengo_Yoshida,1885,,1,1,1,?,0.05448825167540282
Antisa_Khvichava,1880,,1,1,1,?,0.05448825167540282
Millard_Harmon,1888,,1,1,1,?,0.05448825167540282
Peter_Stoner,1888,,1,1,1,?,0.05448825167540282
Rupert_Downes,1885,,1,1,1,?,0.05448825167540282
Mary_Alden,1883,,1,1,1,?,0.05448825167540282
Arthur_S._Carpender,1884,,1,1,1,?,0.05448825167540282
Martha_Wentworth,1889,,1,1,1,?,0.05448825167540282
Otto_Plath,1885,,1,1,1,?,0.05448825167540282
Lew_Cody,1884,,1,1,1,?,0.05448825167540282
Valeska_Suratt,1882,,1,1,1,?,0.05448825167540282
Matt_Moore_(actor),1888,,1,1,1,?,0.05448825167540282
Paul_Popenoe,1888,,1,1,1,?,0.05448825167540282
Marie_Doro,1882,,1,1,1,?,0.05448825167540282
Tuti_Yusupova,1880,,1,1,1,?,0.05448825167540282
Harry_H._Laughlin,1880,,1,1,1,?,0.05448825167540282
Alfonso_de_Orleans_y_Borbón,1886,,1,1,1,?,0.05448825167540282
Marguerite_Clark,1883,,1,1,1,?,0.05448825167540282
Eva_Morris,1885,,1,1,1,?,0.05448825167540282
Syed_Sulaiman_Nadvi,1884,,1,1,1,?,0.05448825167540282
Maude_Fealy,1881,,1,1,1,?,0.05448825167540282
Sophie_Treadwell,1885,,1,1,1,?,0.05448825167540282
Frederick_Handley_Page,1885,,1,1,1,?,0.05448825167540282
Mary_MacLane,1881,,1,1,1,?,0.05448825167540282
Josiah_Stamp,1880,,1,1,1,?,0.05448825167540282
Irene_Fenwick,1887,,1,1,1,?,0.05448825167540282
Tony_Jannus,1889,,1,1,1,?,0.05448825167540282
Theodore_Kosloff,1882,,1,1,1,?,0.05448825167540282
Marie_Brémont,1886,,1,1,1,?,0.05448825167540282
Isabel_Randolph,1889,,1,1,1,?,0.05448825167540282
Lilias_Armstrong,1882,,1,1,1,?,0.05448825167540282
Luo_Meizhen,1885,,1,1,1,?,0.05448825167540282
John_Painter_(supercentenarian),1888,,1,1,1,?,0.05448825167540282
Claud_Allister,1888,,1,1,1,?,0.05448825167540282
Marjorie_Newell_Robb,1889,,1,1,1,?,0.05448825167540282
Ion_Agârbiceanu,1882,,1,1,1,?,0.05448825167540282
Kamato_Hongo,1887,,1,1,1,?,0.05448825167540282
Arturo_Rawson,1885,,1,1,1,?,0.05448825167540282
Shōji_Nishimura,1889,,1,1,1,?,0.05448825167540282
Jonas_H._Ingram,1886,,1,1,1,?,0.05448825167540282
Evadne_Price,1888,,1,1,1,?,0.05448825167540282
Jack_Hoxie,1885,,1,1,1,?,0.05448825167540282
William_S._Pye,1880,,1,1,1,?,0.05448825167540282
Elsie_J._Oxenham,1880,,1,1,1,?,0.05448825167540282
Hong_Yi,1880,,1,1,1,?,0.05448825167540282
Garfield_Wood,1880,,1,1,1,?,0.05448825167540282
Will_Cuppy,1884,,1,1,1,?,0.05448825167540282
Johnny_Gruelle,1880,,1,1,1,?,0.05448825167540282
Paul_Legentilhomme,1884,,1,1,1,?,0.05448825167540282
Ulysses_S._Grant_III,1881,,1,1,1,?,0.05448825167540282
Allama_Mashriqi,1888,,1,1,1,?,0.05448825167540282
Edgar_Guest,1881,,1,1,1,?,0.05448825167540282
Syedna_Taher_Saifuddin,1888,,1,1,1,?,0.05448825167540282
Laurette_Taylor,1883,,1,1,1,?,0.05448825167540282
Charles_White_Whittlesey,1884,,1,1,1,?,0.05448825167540282
Hubert_Harrison,1883,,1,1,1,?,0.05448825167540282
Bradbury_Robinson,1884,,1,1,1,?,0.05448825167540282
Texas_Guinan,1884,,1,1,1,?,0.05448825167540282
Felix_Ysagun_Manalo,1886,,1,1,1,?,0.05448825167540282
Neville_Cardus,1888,,1,1,1,?,0.05448825167540282
Dally_Messenger,1883,,1,1,1,?,0.05448825167540282
Roderick_McMahon,1882,,1,1,1,?,0.05448825167540282
George_Kenney,1889,,1,1,1,?,0.05448825167540282
Bidhan_Chandra_Roy,1882,,1,1,1,?,0.05448825167540282
Burt_Mustin,1884,,1,1,1,?,0.05448825167540282
Squizzy_Taylor,1888,,1,1,1,?,0.05448825167540282
St_John_Philby,1885,,1,1,1,?,0.05448825167540282
A._Y._Jackson,1882,,1,1,1,?,0.05448825167540282
Hiram_Wesley_Evans,1881,,1,1,1,?,0.05448825167540282
Julius_Freed,1887,,1,1,1,?,0.05448825167540282
Aurora_Quezon,1888,,1,1,1,?,0.05448825167540282
Roger_Nash_Baldwin,1884,,1,1,1,?,0.05448825167540282
Mitsuru_Ushijima,1887,,1,1,1,?,0.05448825167540282
John_Cunningham_(Royal_Navy_officer),1885,,1,1,1,?,0.05448825167540282
Zack_Wheat,1888,,1,1,1,?,0.05448825167540282
Lincoln_Beachey,1887,,1,1,1,?,0.05448825167540282
Walter_Knott,1889,,1,1,1,?,0.05448825167540282
Susan_Sutherland_Isaacs,1885,,1,1,1,?,0.05448825167540282
Waite_Phillips,1883,,1,1,1,?,0.05448825167540282
Grace_Brown,1886,,1,1,1,?,0.05448825167540282
Chester_Gillette,1883,,1,1,1,?,0.05448825167540282
Raoul_Lufbery,1885,,1,1,1,?,0.05448825167540282
Francis_Browne,1880,,1,1,1,?,0.05448825167540282
James_E._Casey,1888,,1,1,1,?,0.05448825167540282
Martin_and_Osa_Johnson,1884,,1,1,1,?,0.05448825167540282
John_Cyril_Porte,1884,,1,1,1,?,0.05448825167540282
"Bob_Jones,_Sr.",1883,,1,1,1,?,0.05448825167540282
Pat_Sullivan_(film_producer),1885,,1,1,1,?,0.05448825167540282
Cyclone_Taylor,1884,,1,1,1,?,0.05448825167540282
J._Frank_Dobie,1888,,1,1,1,?,0.05448825167540282
E._J._Pratt,1882,,1,1,1,?,0.05448825167540282
List_of_Dutch_supercentenarians#Geertje_Roelinga-de_Groot,1887,,1,1,1,?,0.05448825167540282
List_of_Dutch_supercentenarians#Ann_Jemimia_Flower,1885,,1,1,1,?,0.05448825167540282
José_Abad_Santos,1886,,1,1,1,?,0.05448825167540282
Eddie_Collins_(actor),1883,,1,1,1,?,0.05448825167540282
Mokichi_Okada,1882,,1,1,1,?,0.05448825167540282
John_H._Hoover,1887,,1,1,1,?,0.05448825167540282
Walden_L._Ainsworth,1886,,1,1,1,?,0.05448825167540282
Doris_Keane,1881,,1,1,1,?,0.05448825167540282
Tringe_Smajli,1880,,1,1,1,?,0.05448825167540282
Jinichi_Kusaka,1888,,1,1,1,?,0.05448825167540282
Edna_Goodrich,1883,,1,1,1,?,0.05448825167540282
Harry_Antrim,1884,,1,1,1,?,0.05448825167540282
Syed_Zafarul_Hasan,1885,,1,1,1,?,0.05448825167540282
Bernard_Rawlings_(Royal_Navy_officer),1889,,1,1,1,?,0.05448825167540282
T._F._O'Rahilly,1883,,1,1,1,?,0.05448825167540282
Nishizō_Tsukahara,1887,,1,1,1,?,0.05448825167540282
Vean_Gregg,1885,,1,1,1,?,0.05448825167540282
Maurice_Boyau,1888,,1,1,1,?,0.05448825167540282
Boshirō_Hosogaya,1888,,1,1,1,?,0.05448825167540282
Frederick_Hawksworth,1884,,1,1,1,?,0.05448825167540282
"John_Rodgers_(naval_officer,_World_War_I)",1881,,1,1,1,?,0.05448825167540282
Essington_Lewis,1881,,1,1,1,?,0.05448825167540282
Aubrey_Faulkner,1881,,1,1,1,?,0.05448825167540282
Olaf_M._Hustvedt,1886,,1,1,1,?,0.05448825167540282
David_Powell_(actor),1883,,1,1,1,?,0.05448825167540282
Elmer_Fowler_Stone,1887,,1,1,1,?,0.05448825167540282
Sylvia_Ashton,1880,,1,1,1,?,0.05448825167540282
F._Burrall_Hoffman,1882,,1,1,1,?,0.05448825167540282
Pieter_Voltelyn_Graham_van_der_Byl,1889,,1,1,1,?,0.05448825167540282
John_Murray_Anderson,1886,,1,1,1,?,0.05448825167540282
Rai_Rajeshwar_Bali,1889,,1,1,1,?,0.05448825167540282
E._L._Grant_Watson,1885,,1,1,1,?,0.05448825167540282
Anna_Rüling,1880,,1,1,1,?,0.05448825167540282
Arthur_Borton,1883,,1,1,1,?,0.05448825167540282
Charles_Christie,1880,,1,1,1,?,0.05448825167540282
Channing_Pollock_(writer),1880,,1,1,1,?,0.05448825167540282
Doris_Blackburn,1889,,1,1,1,?,0.05448825167540282
Gadicherla_Harisarvottama_Rao,1883,,1,1,1,?,0.05448825167540282
Edgar_Church,1888,,1,1,1,?,0.05448825167540282
Robert_G._Fowler,1884,,1,1,1,?,0.05448825167540282
Frank_Foster_(cricketer),1889,,1,1,1,?,0.05448825167540282
Reginald_Barker,1886,,1,1,1,?,0.05448825167540282
George_McMillin,1889,,1,1,1,?,0.05448825167540282
George_Roby_Dempster,1887,,1,1,1,?,0.05448825167540282
Giulio_Gavotti,1882,,1,1,1,?,0.05448825167540282
Reuvein_Margolies,1889,,1,1,1,?,0.05448825167540282
Marion_Leonard,1881,,1,1,1,?,0.05448825167540282
Alfred_Francis_Blakeney_Carpenter,1881,,1,1,1,?,0.05448825167540282
Margarita_Fischer,1886,,1,1,1,?,0.05448825167540282
Ernest_Tyldesley,1889,,1,1,1,?,0.05448825167540282
Arthur_L._Bristol,1886,,1,1,1,?,0.05448825167540282
Harold_Geiger,1884,,1,1,1,?,0.05448825167540282
Margaret_Ayer_Barnes,1886,,1,1,1,?,0.05448825167540282
Walter_Baldwin,1889,,1,1,1,?,0.05448825167540282
Florence_Reed,1883,,1,1,1,?,0.05448825167540282
Theodore_Stark_Wilkinson,1888,,1,1,1,?,0.05448825167540282
Ida_Rentoul_Outhwaite,1888,,1,1,1,?,0.05448825167540282
Leonard_Mudie,1883,,1,1,1,?,0.05448825167540282
Bess_Streeter_Aldrich,1881,,1,1,1,?,0.05448825167540282
Nell_Brinkley,1886,,1,1,1,?,0.05448825167540282
Duffy_Lewis,1888,,1,1,1,?,0.05448825167540282
Venkatarama_Ramalingam_Pillai,1888,,1,1,1,?,0.05448825167540282
"Walter_Citrine,_1st_Baron_Citrine",1887,,1,1,1,?,0.05448825167540282
Eulalio_Gutiérrez,1881,,1,1,1,?,0.05448825167540282
Chujiro_Hayashi,1880,,1,1,1,?,0.05448825167540282
Phil_Mead,1887,,1,1,1,?,0.05448825167540282
Daniel_E._Barbey,1889,,1,1,1,?,0.05448825167540282
Hiroaki_Abe,1889,,1,1,1,?,0.05448825167540282
Sam_McDaniel,1886,,1,1,1,?,0.05448825167540282
Julian_C._Smith,1885,,1,1,1,?,0.05448825167540282
Thomas_J._Moore,1883,,1,1,1,?,0.05448825167540282
Catherine_Bramwell-Booth,1883,,1,1,1,?,0.05448825167540282
Aubrey_Fitch,1883,,1,1,1,?,0.05448825167540282
Alfred_A._Cunningham,1882,,1,1,1,?,0.05448825167540282
DeWitt_Wallace,1889,,1,1,1,?,0.05448825167540282
Morton_Deyo,1887,,1,1,1,?,0.05448825167540282
Maurice_Nicoll,1884,,1,1,1,?,0.05448825167540282
Julia_Sanderson,1887,,1,1,1,?,0.05448825167540282
Grover_Whalen,1886,,1,1,1,?,0.05448825167540282
Esteban_Terradas_i_Illa,1883,,1,1,1,?,0.05448825167540282
Henry_Norwest,1884,,1,1,1,?,0.05448825167540282
Edward_Sheldon,1886,,1,1,1,?,0.05448825167540282
Virginia_Pearson,1886,,1,1,1,?,0.05448825167540282
Ola_Raknes,1887,,1,1,1,?,0.05448825167540282
Husain_Salaahuddin,1881,,1,1,1,?,0.05448825167540282
Lester_Cuneo,1888,,1,1,1,?,0.05448825167540282
Huntley_Gordon,1887,,1,1,1,?,0.05448825167540282
William_Barnard_Rhodes-Moorhouse,1887,,1,1,1,?,0.05448825167540282
Charles_Alan_Pownall,1887,,1,1,1,?,0.05448825167540282
Tich_Freeman,1888,,1,1,1,?,0.05448825167540282
Kenneth_Whiting,1881,,1,1,1,?,0.05448825167540282
Robert_Henry_English,1888,,1,1,1,?,0.05448825167540282
Bee_Ho_Gray,1885,,1,1,1,?,0.05448825167540282
Dorothy_Payne_Whitney,1887,,1,1,1,?,0.05448825167540282
Martin_O'Meara,1882,,1,1,1,?,0.05448825167540282
Sheila_Kaye-Smith,1887,,1,1,1,?,0.05448825167540282
George_A._Malcolm,1881,,1,1,1,?,0.05448825167540282
Wyndham_Standing,1880,,1,1,1,?,0.05448825167540282
George_S._Rentz,1882,,1,1,1,?,0.05448825167540282
Luiza_Zavloschi,1883,,1,1,1,?,0.05448825167540282
