link,year,disambiguation,length,pageviews,revisions,title,score
Adolf_Hitler,1889,False,554118,280936,3377,Adolf Hitler,0.8764518187332744
Pablo_Picasso,1881,False,611106,140707,4774,Pablo Picasso,0.8750734907479659
Benito_Mussolini,1883,False,281592,68465,2789,Benito Mussolini,0.8217856369965789
Charlie_Chaplin,1889,False,299258,69232,2563,Charles Chaplin,0.8202053661608458
Franz_Kafka,1883,False,329467,57370,1944,Franz Kafka,0.8070062840327716
Gabriela_Mistral,1889,False,183077,64035,2400,Gabriela Mistral,0.8058040231886251
Diego_Rivera,1886,False,140737,75175,1795,Diego Rivera,0.7933082512134862
Juan_Ramón_Jiménez,1881,False,153613,35122,2463,Juan Ramón Jiménez,0.7879084526841951
Alfonso_XIII_of_Spain,1886,False,217260,40012,1673,Alfonso XIII de España,0.7842539390755654
Niels_Bohr,1885,False,120539,45242,1534,Niels Bohr,0.7722496760618845
James_Joyce,1882,False,542902,16199,1437,James Joyce,0.7701806436026646
Coco_Chanel,1883,False,290100,36964,1064,Coco Chanel,0.7698021524922622
Alexander_Fleming,1881,False,95056,41000,1732,Alexander Fleming,0.7693466022643521
Franklin_D._Roosevelt,1882,False,163652,49739,1129,Franklin D. Roosevelt,0.7686971746404536
José_Ortega_y_Gasset,1883,False,128837,30834,1320,José Ortega y Gasset,0.7586203136238541
Martin_Heidegger,1889,False,142124,28029,1258,Martin Heidegger,0.7563349543936412
Helen_Keller,1880,False,250556,27609,965,Helen Keller,0.755940874870737
John_Maynard_Keynes,1883,False,162072,29660,1114,John Maynard Keynes,0.755563117902475
Manuel_Azaña,1880,False,252343,16214,1346,Manuel Azaña,0.7549000929423542
Harry_S._Truman,1884,False,527086,24257,738,Harry S. Truman,0.7535501996572156
Pope_John_XXIII,1881,False,199551,18717,1230,Juan XXIII,0.7513090871174712
Le_Corbusier,1887,False,206491,20692,1029,Le Corbusier,0.7477174115659849
Álvaro_Obregón,1880,False,145573,28119,973,Álvaro Obregón,0.7468943569415305
Rómulo_Gallegos,1884,False,101044,34260,923,Rómulo Gallegos,0.7425018279124854
Lluís_Companys,1883,False,333427,6981,1278,Lluís Companys,0.7326249634013455
Ludwig_Wittgenstein,1889,False,150056,16664,881,Ludwig Wittgenstein,0.7303302356947684
Alfred_Wegener,1880,False,83554,11486,1333,Alfred Wegener,0.7246394770309467
Virginia_Woolf,1882,False,160774,23257,603,Virginia Woolf,0.7242553591788902
Eleazar_López_Contreras,1883,False,115254,16182,825,Eleazar López Contreras,0.7222558010130664
Erwin_Schrödinger,1887,False,112245,22106,680,Erwin Schrödinger,0.7217320811121575
Igor_Stravinsky,1882,False,188772,9865,838,Ígor Stravinski,0.7181665138424352
Marcel_Duchamp,1887,False,192804,15722,590,Marcel Duchamp,0.7167503161476358
Victoria_Eugenie_of_Battenberg,1887,False,155968,11971,699,Victoria Eugenia de Battenberg,0.7131483914651017
Chiang_Kai-shek,1887,False,452448,9874,519,Chiang Kai-shek,0.7119341845252745
Mustafa_Kemal_Atatürk,1881,False,187518,8761,740,Mustafa Kemal Atatürk,0.7099067081209293
Alfonso_López_Pumarejo,1886,False,137003,12189,670,Alfonso López Pumarejo,0.7097265370746628
Pio_of_Pietrelcina,1887,False,118878,16352,577,Pío de Pietrelcina,0.7086020878580458
Srinivasa_Aaiyangar_Ramanujan,1887,False,308103,19539,350,Srinivasa Aiyangar Ramanujan,0.7055089440014513
Emilio_Mola,1887,False,142890,9291,704,Emilio Mola,0.7051187279956413
George_Patton,1885,False,137561,14735,504,George Patton,0.7027824808750609
Edwin_Hubble,1889,False,86975,11608,593,Edwin Hubble,0.6956631349363893
Fernando_Pessoa,1888,False,159171,10352,464,Fernando Pessoa,0.6926821578821796
Douglas_MacArthur,1880,False,215604,11812,379,Douglas MacArthur,0.691748749714713
T._S._Eliot,1888,False,183533,7420,525,T. S. Eliot,0.6911878380055868
T._E._Lawrence,1888,False,115201,11363,455,Thomas Edward Lawrence,0.6889752301966651
Stefan_Zweig,1881,False,113098,11218,446,Stefan Zweig,0.6874929174018526
Getúlio_Vargas,1882,False,148521,8445,477,Getúlio Vargas,0.6874177297662147
Ludwig_Mies_van_der_Rohe,1886,False,112233,11175,375,Ludwig Mies van der Rohe,0.679707593291616
D._H._Lawrence,1885,False,220310,3759,586,D. H. Lawrence,0.6782554513394872
Guillaume_Apollinaire,1880,False,92660,9302,420,Guillaume Apollinaire,0.6769177812928192
Manuel_Prado_Ugarteche,1889,False,104189,9199,402,Manuel Prado Ugarteche,0.6766932739106186
José_Raúl_Capablanca,1888,False,184776,5900,426,José Raúl Capablanca,0.6762196050965372
Marc_Chagall,1887,False,87819,7178,485,Marc Chagall,0.6752433521896293
José_Eustasio_Rivera,1888,False,61095,10335,442,José Eustasio Rivera,0.6745252615292108
Alexander_Kerensky,1881,False,192642,6795,368,Aleksandr Kérenski,0.6744032366644436
Emmy_Noether,1882,False,314311,3620,459,Emmy Noether,0.6723887125328901
Amedeo_Modigliani,1884,False,119187,9347,342,Amedeo Modigliani,0.6721480089568714
Kahlil_Gibran,1883,False,99663,9012,372,Gibran Jalil Gibran,0.6721009175994144
John_Logie_Baird,1888,False,80302,10970,352,John Logie Baird,0.6709445128261279
Juan_Gris,1887,False,69992,7732,451,Juan Gris,0.6704202976521554
Ion_Antonescu,1882,False,704469,1545,652,Ion Antonescu,0.6666105520838385
Hans_Kelsen,1881,False,85666,12170,286,Hans Kelsen,0.6650184970264933
Heinz_Guderian,1888,False,118902,5977,377,Heinz Guderian,0.6647835861453076
Karl_I_of_Austria,1887,False,196209,4787,363,Carlos I de Austria y IV de Hungría,0.6644050354608675
Xul_Solar,1887,False,56296,7813,423,Xul Solar,0.6643120980226938
Henry_Moseley,1887,False,59823,9557,358,Henry Moseley,0.6633657034672864
Otto_Frank,1889,False,61203,6594,442,Otto Heinrich Frank,0.6631675517440562
Béla_Bartók,1881,False,108689,4683,397,Béla Bartók,0.6588643059561872
António_de_Oliveira_Salazar,1889,False,126961,5721,325,António de Oliveira Salazar,0.6582123977283315
Robert_Schuman,1886,False,183870,3102,435,Robert Schuman,0.6581277793419359
Georges_Braque,1882,False,65380,7652,331,Georges Braque,0.6560559232393424
David_Ben-Gurion,1886,False,128894,4314,358,David Ben-Gurión,0.6548349801122626
Bernardo_Houssay,1887,False,72021,5779,355,Bernardo Alberto Houssay,0.6534592228511326
Eleanor_Roosevelt,1884,False,81614,9204,244,Eleanor Roosevelt,0.6503087330878674
Wilhelm_Canaris,1887,False,107819,3604,386,Wilhelm Canaris,0.6501391097861966
Erich_von_Manstein,1887,False,115734,4055,345,Erich von Manstein,0.6499594013755647
Joseph_Alois_Schumpeter,1883,False,132825,6957,238,Joseph Alois Schumpeter,0.6496957204237603
Karl_Jaspers,1883,False,108482,5830,265,Karl Jaspers,0.6472794143030323
Jean_Cocteau,1889,False,98233,5701,277,Jean Cocteau,0.6472207933046238
Walter_Gropius,1883,False,83882,6299,276,Walter Gropius,0.647195996960844
Ludwig_von_Mises,1881,False,113346,4481,294,Ludwig von Mises,0.6455953647785282
Ernst_Röhm,1887,False,66968,5913,279,Ernst Röhm,0.642557613427629
Nikolai_Ivanovich_Bukharin,1888,False,329523,1989,345,Nikolái Bujarin,0.6422359344821497
Isoroku_Yamamoto,1884,False,116557,5129,245,Isoroku Yamamoto,0.6414344573009705
Tojo_Hideki,1884,False,119017,4834,251,Hideki Tōjō,0.6412899841631038
Princess_Alice_of_Battenberg,1885,False,192529,2427,338,Alicia de Battenberg,0.6409887714840168
Giovanni_Papini,1881,False,67755,3161,369,Giovanni Papini,0.6374760192901872
Bela_Lugosi,1882,False,87598,4617,261,Béla Lugosi,0.6373702010929818
Agustín_Pío_Barrios,1885,False,71113,3936,300,Agustín Pío Barrios,0.6359580515505094
Jawaharlal_Nehru,1889,False,128057,2944,297,Sri Pandit Jawaharlal Nehru,0.6359385824204449
Eulalio_Gutiérrez,1881,False,117791,3354,277,Eulalio Gutiérrez Ortiz,0.6355451364142578
Ante_Pavelić,1889,False,157985,2295,307,Ante Pavelić,0.632698137058437
Melanie_Klein,1882,False,93549,4755,218,Melanie Klein,0.6309393944873484
Bronisław_Malinowski,1884,False,76730,5381,216,Bronisław Malinowski,0.6307238309298986
Porfirio_Barba-Jacob,1883,False,45055,4544,286,Porfirio Barba Jacob,0.6305115620051311
Wilhelm_Keitel,1882,False,73779,5424,212,Wilhelm Keitel,0.6294653976919804
Georgia_O'Keeffe,1887,False,238932,2596,229,Georgia O'Keeffe,0.6290208951394107
Ezra_Pound,1885,False,88579,4900,209,Ezra Pound,0.6289515839725442
Heitor_Villa-Lobos,1887,False,83952,2591,308,Heitor Villa-Lobos,0.62770849731399
Roberto_María_Ortiz,1886,False,88322,3581,227,Roberto Marcelino Ortiz,0.6245315069320867
Éamon_de_Valera,1882,False,158986,2369,245,Éamon de Valera,0.6241949159694824
Jacques_Maritain,1882,False,87501,2646,273,Jacques Maritain,0.6239544019561367
Bernard_Montgomery,1887,False,79712,4089,214,Bernard Law Montgomery,0.6238908514595111
Ty_Cobb,1886,False,125803,1767,326,Ty Cobb,0.6238665513406959
Raymond_Chandler,1888,False,70747,3803,228,Raymond Chandler,0.6231070394022602
Wilhelmina_of_the_Netherlands,1880,False,142811,1963,274,Guillermina de los Países Bajos,0.6218490741242684
Pedro_Pablo_Ramírez,1884,False,83321,2801,234,Pedro Pablo Ramírez,0.6183168148911858
Edward_Hopper,1882,False,71122,4841,178,Edward Hopper,0.6178660484005845
Franz_Marc,1880,False,79233,3020,219,Franz Marc,0.6167829569458615
Gabriel_Marcel,1889,False,91124,3337,197,Gabriel Marcel,0.6166554707457202
Gaston_Bachelard,1884,False,75181,3726,196,Gaston Bachelard,0.6166118158719829
"Joseph_P._Kennedy,_Sr.",1888,False,71795,4190,170,Joseph P. Kennedy,0.6122396846778524
Marcus_Garvey,1887,False,59768,4058,181,Marcus Garvey,0.611764975630648
Anna_Pavlova,1881,False,58741,4223,178,Anna Pávlova,0.6117168798931617
Boris_Karloff,1887,False,72083,3771,173,Boris Karloff,0.6104899348732483
Robert_H._Goddard,1882,False,288889,1464,213,Robert Goddard,0.6103449959668213
Dale_Carnegie,1888,False,52555,5820,152,Dale Carnegie,0.6100436567506875
Giorgio_de_Chirico,1888,False,77307,2905,194,Giorgio de Chirico,0.6099623438003664
Karen_Blixen,1885,False,126947,2343,191,Karen Blixen,0.6099145647803319
Alban_Berg,1885,False,100883,1671,254,Alban Berg,0.6091740760966116
Oswald_Spengler,1880,False,73056,2643,202,Oswald Spengler,0.6084124628364015
George_Marshall,1880,False,71407,2866,193,George Marshall,0.608255164331546
Gustaf_VI_Adolf_of_Sweden,1882,False,141676,2142,189,Gustavo VI Adolfo de Suecia,0.608245764026024
Arthur_Rubinstein,1887,False,85268,2450,196,Arthur Rubinstein,0.6071016607525317
Eugene_O'Neill,1888,False,93026,3758,150,Eugene O'Neill,0.6069934501418492
Morihei_Ueshiba,1883,False,74681,2027,227,Morihei Ueshiba,0.6062508569387585
F._W._Murnau,1888,False,77483,1991,224,Friedrich Wilhelm Murnau,0.6056728099907418
Jim_Thorpe,1887,False,215304,1151,232,Jim Thorpe,0.6027262331110612
Chester_W._Nimitz,1885,False,112481,1871,192,Chester Nimitz,0.6021002762892753
Jorge_Chávez,1887,False,59070,2844,179,Jorge Chávez,0.6019595559631948
Anna_Akhmatova,1889,False,93928,1170,284,Anna Ajmátova,0.6011809179490316
Rafael_Arévalo_Martínez,1884,False,101550,2863,146,Rafael Arévalo Martínez,0.5998491644328565
Ernst_Ludwig_Kirchner,1880,False,94992,2841,145,Ernst Ludwig Kirchner,0.5984521359113635
Otto_Heinrich_Warburg,1883,False,73600,2494,164,Otto Heinrich Warburg,0.5974918568742443
Alexander_I_of_Yugoslavia,1888,False,117836,1430,198,Alejandro I de Yugoslavia,0.5959094373294791
Cecil_B._DeMille,1881,False,82741,2093,168,Cecil B. DeMille,0.5953535367316831
Nikos_Kazantzakis,1883,False,98030,1894,170,Nikos Kazantzakis,0.5952545380388432
Alcide_De_Gasperi,1881,False,85684,1451,209,Alcide De Gasperi,0.594613099895666
Anton_Webern,1883,False,79174,1421,215,Anton Webern,0.5941134454286756
Pierre_Laval,1883,False,130655,1603,169,Pierre Laval,0.5936672244652155
Felix_Yusupov,1887,False,110940,1746,167,Félix Yusúpov,0.5936484164289952
Max_Born,1882,False,78946,2367,150,Max Born,0.592845363816401
Jean_Arp,1886,False,61150,2885,144,Jean Arp,0.5926509336808528
Vidkun_Quisling,1887,False,269909,1391,151,Vidkun Quisling,0.5923816058668594
René_Guénon,1886,False,83750,1520,192,René Guénon,0.5921395332788962
François_Mauriac,1885,False,95659,1243,196,François Mauriac,0.5885182601876922
George_Mallory,1886,False,79217,3136,118,George Leigh Mallory,0.5882961825515661
Wilhelm_Furtwängler,1886,False,119523,1018,209,Wilhelm Furtwängler,0.5874556348436734
Zoltán_Kodály,1882,False,82069,1737,157,Zoltán Kodály,0.5869058112674227
Clement_Attlee,1883,False,82835,2041,140,Clement Attlee,0.5861919221455977
Rube_Goldberg,1883,False,56110,1353,194,Rube Goldberg,0.58377410632685
Albert_Kesselring,1885,False,89751,1632,147,Albert Kesselring,0.5832360507110484
Kliment_Voroshilov,1881,False,83844,1400,165,Kliment Voroshílov,0.5831101183138945
Nadia_Boulanger,1887,False,110789,1003,185,Nadia Boulanger,0.5810247649148483
"Lon_Chaney,_Sr.",1883,False,111763,1463,140,Lon Chaney,0.5804691914647238
Edgard_Varèse,1883,False,74844,1088,191,Edgar Varèse,0.5801549724255324
Max_Wertheimer,1880,False,44916,4738,97,Max Wertheimer,0.579877545788744
Conrad_Hilton,1887,False,52299,4914,91,Conrad Hilton,0.5792354823669521
Francisco_Canaro,1888,False,70568,1534,148,Francisco Canaro,0.5787500364680411
Oskar_Kokoschka,1886,False,70470,1955,128,Oskar Kokoschka,0.5786914972074598
Theo_van_Doesburg,1883,False,76199,2504,110,Theo van Doesburg,0.5786050024845736
Arnold_J._Toynbee,1889,False,64254,1894,130,Arnold J. Toynbee,0.5773954591531838
Kurt_von_Schleicher,1882,False,79129,1673,128,Kurt von Schleicher,0.5758953541888371
Jean_Monnet,1888,False,65071,1519,143,Jean Monnet,0.5758748854516261
John_Reed_(journalist),1887,False,61463,1902,126,John Reed,0.5754466681169793
Edward_Bach,1886,False,58166,1133,177,Edward Bach,0.5750301672475668
Harpo_Marx,1888,False,59280,1910,125,Harpo Marx,0.5747099459769667
P._G._Wodehouse,1881,False,83448,986,174,P. G. Wodehouse,0.5745016495487972
Arturo_Rawson,1885,False,51740,1592,142,Arturo Rawson,0.5738937546303895
Günther_von_Kluge,1882,False,61399,1945,120,Günther von Kluge,0.5736794553825856
Edith_Bratt,1889,False,128251,741,190,Edith Tolkien,0.5736370030197478
Violet_Jessop,1887,False,47746,1755,135,Violet Jessop,0.5731945613640452
Crown_Prince_Wilhelm_of_Germany,1882,False,113122,1093,142,Guillermo de Prusia,0.5725093550265401
Robert_Musil,1880,False,74875,1687,120,Robert Musil,0.5723513672508809
Fedor_von_Bock,1880,False,60626,1473,137,Fedor von Bock,0.5721439690287554
Katherine_Mansfield,1888,False,68637,1483,131,Katherine Mansfield,0.5718428136904589
Roscoe_Arbuckle,1887,False,84159,1553,120,Roscoe Arbuckle,0.571492010569704
Roland_Garros_(aviator),1888,False,51205,2065,115,Roland Garros,0.5708130442785854
Douglas_Fairbanks,1883,False,61984,2232,103,Douglas Fairbanks,0.5697521531293739
Igor_Sikorsky,1889,False,69948,890,176,Ígor Sikorski,0.5695129268257505
John_Barrymore,1882,False,66418,2114,103,John Barrymore,0.5692449091981656
Arthur_Eddington,1882,False,91516,1201,130,Arthur Stanley Eddington,0.5688725828700355
Mohammad_Mosaddegh,1882,False,73147,1426,122,Mohammad Mosaddeq,0.5681896319226555
Mohammad_Mosaddegh,1882,False,73147,1426,122,Mohammad Mosaddeq,0.5681896319226555
Ludwig_Beck,1880,False,56381,1804,112,Ludwig Beck,0.5672479040117321
Aristides_de_Sousa_Mendes,1885,False,102348,808,161,Aristides de Sousa Mendes,0.5671822594598741
Sergey_Kirov,1886,False,91134,1080,134,Serguéi Kírov,0.5670226597294334
Alfonso_de_Orleans_y_Borbón,1886,False,55933,992,161,Alfonso de Orleans y Borbón,0.5664570195381043
Irving_Berlin,1888,False,94296,1078,131,Irving Berlin,0.5663354915687262
Georg_Trakl,1887,False,74430,1188,126,Georg Trakl,0.5646570042479263
Lead_Belly,1888,False,76116,1137,127,Leadbelly,0.5639961566826324
Anton_Drexler,1884,False,45105,1775,111,Anton Drexler,0.5635032792734793
Karl_Barth,1886,False,73924,1477,108,Karl Barth,0.563438777653202
Saint-John_Perse,1887,False,96297,981,127,Saint-John Perse,0.5622905387774207
Gerrit_Rietveld,1888,False,55351,1343,119,Gerrit Rietveld,0.5618864735999559
Tarsila_do_Amaral,1886,False,63367,1683,101,Tarsila do Amaral,0.5617708936759175
Rodolfo_Graziani,1882,False,81459,792,153,Rodolfo Graziani,0.5617382027378824
Shoeless_Joe_Jackson,1887,False,63458,1126,127,Shoeless Joe Jackson,0.5615126238222024
Gerald_Gardner_(Wiccan),1884,False,41203,1198,136,Gerald Gardner,0.5608892506733164
Leopold_Stokowski,1882,False,123495,1107,107,Leopold Stokowski,0.5606313199748019
Auguste_Piccard,1884,False,61056,1117,125,Auguste Piccard,0.5600844020957999
Max_Steiner,1888,False,71065,1005,127,Max Steiner,0.5594912683327585
Selman_Waksman,1888,False,67209,872,141,Selman Abraham Waksman,0.5590621330619108
Inge_Lehmann,1888,False,54347,770,164,Inge Lehmann,0.5588033463171044
Peter_Debye,1884,False,123622,711,139,Peter Debye,0.5587651345440818
Édouard_Daladier,1884,False,71880,1020,117,Édouard Daladier,0.5563340637543905
René_Cassin,1887,False,69283,862,127,René Cassin,0.5544981940715463
Velimir_Khlebnikov,1885,False,108541,487,178,Velimir Jlébnikov,0.5541909665845824
Sigrid_Undset,1882,False,76217,776,132,Sigrid Undset,0.5539938045201374
Julian_Huxley,1887,False,86757,1180,97,Julian Huxley,0.5537649171616084
Sinclair_Lewis,1885,False,79096,1133,101,Sinclair Lewis,0.5535444165536271
Frank_Nitti,1886,False,61685,1504,91,Frank Nitti,0.5532304243475641
Ramón_Grau,1882,False,55196,1346,98,Ramón Grau San Martín,0.5526260329560005
Irving_Langmuir,1881,False,65731,1000,111,Irving Langmuir,0.5522642571300628
Hermann_Hoth,1885,False,62522,1141,103,Hermann Hoth,0.5519554940078468
Edvard_Beneš,1884,False,87888,663,136,Edvard Beneš,0.5517666375930732
Walther_von_Brauchitsch,1881,False,51023,1457,94,Walther von Brauchitsch,0.5517271909353633
Edward_Weston,1886,False,55357,1260,99,Edward Weston,0.5513557143759692
Erich_von_Stroheim,1885,False,60427,961,114,Erich von Stroheim,0.5513230318150635
François_Darlan,1881,False,103020,669,127,François Darlan,0.5508550815797767
Jozef_Tiso,1887,False,97096,544,148,Jozef Tiso,0.5496369576819784
Theda_Bara,1885,False,57080,953,111,Theda Bara,0.549175410586545
Joseph_Pilates,1883,False,54285,2374,69,Joseph Hubertus Pilates,0.5480811193787363
Henry_A._Wallace,1888,False,65981,1075,95,Henry A. Wallace,0.5469943196631649
Heinrich_Brüning,1885,False,83412,631,127,Heinrich Brüning,0.5466178388025255
Maurice_Chevalier,1888,False,61377,1134,93,Maurice Chevalier,0.5466145091175083
Georgi_Dimitrov,1882,False,80127,542,140,Georgi Dimitrov Mijáilov,0.545128780706349
Ernst_Kretschmer,1888,False,58491,1879,71,Ernst Kretschmer,0.5450700933640655
Jun'ichirō_Tanizaki,1886,False,59644,1116,90,Jun'ichirō Tanizaki,0.5442228960197498
Franz_Halder,1884,False,69604,1047,90,Franz Halder,0.5442072730844472
Shmuel_Yosef_Agnon,1888,False,68356,639,124,Shmuel Yosef Agnón,0.5437812644398875
Tod_Browning,1880,False,65158,747,112,Tod Browning,0.5437458087129223
Claude_Rains,1889,False,59335,996,95,Claude Rains,0.5435984540271257
Al_Jolson,1886,False,58712,984,95,Al Jolson,0.5431296523539473
Paul_Ludwig_Ewald_von_Kleist,1881,False,52614,709,121,Ewald von Kleist,0.5430315227146482
Chandrasekhara_Venkata_Raman,1888,False,85959,483,143,Chandrasekhara Raman,0.5427241441426738
Emil_Jannings,1884,False,70171,908,94,Emil Jannings,0.5423300212583084
İsmet_İnönü,1884,False,70348,765,103,İsmet İnönü,0.5415380787632614
Gottfried_Benn,1886,False,103376,626,107,Gottfried Benn,0.5410983112383514
Georges_Bernanos,1888,False,68807,847,94,Georges Bernanos,0.5400679853126207
Theodor_Heuss,1884,False,71451,675,108,Theodor Heuss,0.5399706509169448
Karl_von_Terzaghi,1883,False,36506,1224,88,Karl von Terzaghi,0.5397042330096796
Ernst_Thälmann,1886,False,72916,602,116,Ernst Thälmann,0.5396691103381636
Johannes_Blaskowitz,1883,False,79934,603,113,Johannes Blaskowitz,0.5395808239073506
Ernst_Hanfstaengl,1887,False,52726,1233,79,Ernst Hanfstaengl,0.5389213386677376
William_Boeing,1881,False,41265,1049,91,William E. Boeing,0.5386687135595469
A._A._Milne,1882,False,51612,917,92,A. A. Milne,0.5380749554548041
Olave_Baden-Powell,1889,False,81530,557,114,Olave Saint Claire Soames,0.5375603469290898
Bess_Truman,1885,False,63683,1057,78,Bess Truman,0.5362829172080031
Louis_B._Mayer,1885,False,57405,833,91,Louis B. Mayer,0.5359947100720148
Robert_J._Flaherty,1884,False,62465,509,121,Robert J. Flaherty,0.5341756828748738
Victor_Fleming,1889,False,62643,995,76,Victor Fleming,0.5331158448858724
Roger_Martin_du_Gard,1881,False,67145,658,95,Roger Martin du Gard,0.5326494272456207
George_Enescu,1881,False,67033,551,107,George Enescu,0.5323236727932571
Tomoyuki_Yamashita,1885,False,56776,914,79,Tomoyuki Yamashita,0.5316255453145421
James_Franck,1882,False,166188,376,116,James Franck,0.5316073675298355
Maurice_Utrillo,1883,False,45734,1016,78,Maurice Utrillo,0.531437677409395
René_Coty,1882,False,61886,538,108,René Coty,0.5310729823950829
Semyon_Budyonny,1883,False,67896,721,86,Semión Budionni,0.5308747910823808
Paul_Hausser,1880,False,52870,819,83,Paul Hausser,0.5301448802035593
Max_Brod,1884,False,61110,837,79,Max Brod,0.5299513163913807
Lothar_von_Arnauld_de_la_Perière,1886,False,80732,273,184,Lothar von Arnauld de la Perière,0.5297210295232768
Gustav_Ludwig_Hertz,1887,False,66952,424,124,Gustav Hertz,0.5296319783132343
Alice_Paul,1885,False,126054,749,72,Alice Paul,0.5294667094208435
Chico_Marx,1887,False,45864,1134,70,Chico Marx,0.5288444189840766
Vincent_Auriol,1884,False,66861,570,95,Vincent Auriol,0.5280873304088931
Aleksei_Nikolaevich_Tolstoi,1883,False,64632,468,110,Alekséi Nikoláyevich Tolstói,0.5276805875125045
Joaquín_Turina,1882,False,86846,210,235,Joaquín Turina,0.5273234544527725
Angela_Hitler,1883,False,45478,1749,56,Angela Hitler,0.5270611519447412
Victor_Francis_Hess,1883,False,70562,460,107,Victor Franz Hess,0.5268491178624064
Hugo_Sperrle,1885,False,42335,867,79,Hugo Sperrle,0.5268081634285173
Blaise_Cendrars,1887,False,76507,705,78,Blaise Cendrars,0.5267213282387846
Siegfried_Sassoon,1886,False,109549,413,103,Siegfried Sassoon,0.5259395481956611
Hans_Geiger,1882,False,64263,991,66,Hans Geiger,0.5259252744871604
Carlo_Carrà,1881,False,39031,1149,68,Carlo Carrà,0.5257922673592719
Władysław_Sikorski,1881,False,98552,402,103,Władysław Sikorski,0.5239553893731786
H._L._Mencken,1880,False,51192,827,73,H. L. Mencken,0.5237144093244196
Han_van_Meegeren,1889,False,108617,518,83,Han van Meegeren,0.5236883691605398
Paul_Tillich,1886,False,82443,620,78,Paul Tillich,0.5236189424383916
John_Foster_Dulles,1888,False,59464,862,67,John Foster Dulles,0.5221045284957482
W._C._Fields,1880,False,94907,496,85,W. C. Fields,0.5220831548099905
Wacław_Sierpiński,1882,False,73612,500,88,Wacław Sierpiński,0.5213936631121818
Ettore_Bugatti,1881,False,51464,1178,58,Ettore Bugatti,0.5209695344292563
Olaf_Stapledon,1886,False,54862,456,99,Olaf Stapledon,0.5205197685090732
Jaroslav_Hašek,1883,False,59160,432,101,Jaroslav Hašek,0.5203745180872401
Vasily_Blyukher,1889,False,67137,476,91,Vasili Blücher,0.5203590107657666
Günther_Lütjens,1889,False,54757,419,103,Günther Lütjens,0.5193464932549171
Claude_Auchinleck,1884,False,65525,370,109,Claude Auchinleck,0.5192877570224752
Ernst_Heinkel,1888,False,48197,325,133,Ernst Heinkel,0.519191894971875
Julio_Lozano_Díaz,1885,False,69767,543,79,Julio Lozano Díaz,0.5184360276045042
Max_Beckmann,1884,False,57966,705,70,Max Beckmann,0.5184197929613285
"Thomas_Midgley,_Jr.",1889,False,40221,824,69,Thomas Midgley,0.5180742811199495
André_Marty,1886,False,44209,701,74,André Marty,0.5180709729622638
Aurelio_Mosquera,1883,False,49274,1058,57,Aurelio Mosquera Narváez,0.5168281212213028
Austin_Osman_Spare,1886,False,42235,652,76,Austin Osman Spare,0.5167510563842196
Georg_von_Küchler,1881,False,56615,478,86,Georg von Küchler,0.5161611555680689
August_Macke,1887,False,58190,878,59,August Macke,0.5156333329262581
Walter_Huston,1883,False,52272,710,67,Walter Huston,0.5153116512132164
Hedda_Hopper,1885,False,73562,1905,41,Hedda Hopper,0.5149936309801418
Alberto_Gerchunoff,1883,False,55776,381,99,Alberto Gerchunoff,0.5146035561503272
Billie_Burke,1885,False,63271,730,62,Billie Burke,0.5140946230187615
Billie_Burke,1884,False,63271,730,62,Billie Burke,0.5140946230187615
Sarah_Knauss,1880,False,44908,760,65,Sarah Knauss,0.5140357770551942
Otto_Stern,1888,False,59424,426,88,Otto Stern,0.513932906096753
Johnny_Torrio,1882,False,68598,2323,38,Johnny Torrio,0.5133981611135551
Avery_Brundage,1887,False,68445,651,64,Avery Brundage,0.5132824658394465
Hugh_Dowding,1882,False,58730,412,89,Hugh Dowding,0.5131984023710637
Otto_Klemperer,1885,False,61141,441,82,Otto Klemperer,0.5121839851450892
Robert_Robinson_(organic_chemist),1886,False,65828,473,76,Robert Robinson,0.5116664789084154
Werner_von_Fritsch,1880,False,45488,591,71,Werner von Fritsch,0.5113857302653441
Maximilian_von_Weichs,1881,False,53169,579,69,Maximilian von Weichs,0.5110372799219609
Henri_Coandă,1886,False,62936,571,67,Henri Coandă,0.5109027988230782
Smedley_Butler,1881,False,83188,562,64,Smedley Butler,0.510876987959504
Otto_Bauer,1881,False,65081,487,73,Otto Bauer,0.5105609006779834
Chujiro_Hayashi,1880,False,43535,274,127,Chūjirō Hayashi,0.5099314630760489
Barry_Fitzgerald,1888,False,56028,458,77,Barry Fitzgerald,0.5096101523764822
Hermann_Broch,1886,False,57148,644,62,Hermann Broch,0.5095051866621214
Frans_Eemil_Sillanpää,1888,False,58929,427,79,Frans Eemil Sillanpää,0.5090538479674045
Karol_Szymanowski,1882,False,52334,478,75,Karol Szymanowski,0.5090261809948553
Will_Durant,1885,False,54089,543,68,Will Durant,0.5085805758101507
Harlow_Shapley,1885,False,66278,366,85,Harlow Shapley,0.5083917029328829
Hermann_Staudinger,1881,False,66026,541,65,Hermann Staudinger,0.5082548937490138
Joseph_Stilwell,1883,False,71938,331,90,Joseph Stilwell,0.5082016064739381
Mack_Sennett,1880,False,63740,592,62,Mack Sennett,0.5081794583796987
Percy_Williams_Bridgman,1882,False,66743,303,98,Percy Williams Bridgman,0.5078905707012857
Ernst_Busch_(field_marshal),1885,False,58320,363,86,Ernst Busch (militar),0.5073415439541232
Umberto_Nobile,1885,False,72803,334,86,Umberto Nobile,0.5066640427971516
Theodore_Roosevelt_Jr.,1887,False,42455,1152,47,"Theodore Roosevelt, Jr.",0.5063656090374096
Esteban_Terradas_i_Illa,1883,False,69272,256,107,Esteve Terradas i Illa,0.5055201351084987
Rudolf_Bultmann,1884,False,53188,668,57,Rudolf Karl Bultmann,0.5054209567389292
Sacha_Guitry,1885,False,66767,446,68,Sacha Guitry,0.5046418532357455
Otto_Fritz_Meyerhof,1884,False,56388,384,78,Otto Fritz Meyerhof,0.5045438215075982
"Joe_""King""_Oliver",1885,False,49252,459,70,Joe King Oliver,0.5038741828018569
Charles_Sheeler,1883,False,114942,224,103,Charles Sheeler,0.5034973207665893
George_de_Hevesy,1885,False,75049,233,108,George Hevesy,0.5030097449809667
Alain-Fournier,1886,False,60556,365,77,Alain-Fournier,0.5029826726962746
Max_Linder,1883,False,59589,599,56,Max Linder,0.5025661378940922
Sylvanus_Morley,1883,False,62125,268,97,Sylvanus Morley,0.5022486638589567
Ernst_Robert_Curtius,1886,False,64047,344,78,Ernst Robert Curtius,0.5021145654420247
Raymond_A._Spruance,1886,False,53360,541,60,Raymond Spruance,0.502087893472891
Patriarch_Athenagoras_I_of_Constantinople,1886,False,48080,406,73,Atenágoras I,0.5017107700225777
Friedrich_Olbricht,1888,False,47722,1213,41,Friedrich Olbricht,0.500619368692696
Carl_von_Ossietzky,1889,False,56599,363,74,Carl von Ossietzky,0.5003249568376034
Eric_Gill,1882,False,49262,492,62,Eric Gill,0.5001095927236188
Harvey_Spencer_Lewis,1883,False,57500,402,68,Harvey Spencer Lewis,0.4998757175722276
Tom_Mix,1880,False,61936,606,52,Tom Mix,0.49932577864122346
Gustavo_Jiménez,1886,False,51864,348,76,Gustavo Jiménez,0.49925332364822056
Celâl_Bayar,1883,False,66811,382,67,Celal Bayar,0.4989858955175403
Vicki_Baum,1888,False,47918,511,59,Vicki Baum,0.4984741373284566
Friedrich_Bergius,1884,False,63377,305,79,Friedrich Bergius,0.498427030281358
Ernest_Bloch,1880,False,53389,357,71,Ernest Bloch,0.49730114115476776
Edgar_Adrian,1889,False,58676,288,82,Edgar Douglas Adrian,0.4972798192524737
Hans-Jürgen_von_Arnim,1889,False,53255,402,65,Hans- Jürgen von Arnim,0.496970393236668
Eurico_Gaspar_Dutra,1883,False,54196,373,68,Eurico Gaspar Dutra,0.49688058920009964
Frits_Zernike,1888,False,52750,356,70,Frits Zernike,0.4964370106518084
"Archibald_Wavell,_1st_Earl_Wavell",1883,False,57151,295,79,Archibald Wavell,0.49625866519005657
Hans_Fischer,1881,False,60413,349,68,Hans Fischer,0.49576129063597624
Harry_Nyquist,1889,False,41909,435,63,Harry Nyquist,0.49550960535157357
Georgios_Papandreou,1888,False,56058,230,97,Yorgos Papandréu (1888),0.49548065591655094
Petru_Groza,1884,False,123211,217,84,Petru Groza,0.4945019414991235
Max_Fleischer,1883,False,42643,468,58,Max Fleischer,0.49383293572252684
Paul_Karrer,1889,False,55477,290,75,Paul Karrer,0.493097965271068
Hans_Richter_(artist),1888,False,44663,729,45,Hans Richter,0.49306839619269394
Husband_E._Kimmel,1882,False,58255,626,46,Husband E. Kimmel,0.49289448783081785
Clifton_Webb,1889,False,72332,486,50,Clifton Webb,0.49238093341072037
Antonina_De_Angelis,1880,False,43273,326,71,María Ludovica de Angelis,0.4921932358206142
R._G._Collingwood,1889,False,48467,949,39,Robin George Collingwood,0.49199971523644953
Jean_de_Lattre_de_Tassigny,1889,False,46434,444,56,Jean de Lattre de Tassigny,0.49136004026717184
Cyril_Burt,1883,False,72680,269,72,Cyril Burt,0.49118341395601695
Arthur_Percival,1887,False,114032,292,62,Arthur Ernest Percival,0.4911061178919036
Kuniaki_Koiso,1880,False,76909,411,53,Kuniaki Koiso,0.4909889529234811
Fritz_Pfeffer,1889,False,36642,826,42,Fritz Pfeffer,0.49023688907358576
Erle_Stanley_Gardner,1889,False,59418,507,48,Erle Stanley Gardner,0.4895791283319273
"William_Halsey,_Jr.",1882,False,47936,575,46,William F. Halsey,0.48870815544654583
Clinton_Davisson,1881,False,57156,235,80,Clinton Joseph Davisson,0.4886190924230254
Antisa_Khvichava,1880,False,36438,382,61,Antisa Khvichava,0.48851627276629184
Archibald_Hill,1886,False,58195,243,77,Archibald Vivian Hill,0.48839788704474746
Archibald_Hill,1886,False,58195,243,77,Archibald Vivian Hill,0.48839788704474746
Alexander_Vandegrift,1887,False,60376,292,66,Alexander Vandegrift,0.48839325074113005
Alfredo_Casella,1883,False,79234,276,65,Alfredo Casella,0.488225323081176
"Simon_Bolivar_Buckner,_Jr.",1886,False,48204,927,37,"Simon Bolivar Buckner, Jr.",0.4881662757722209
Beno_Gutenberg,1889,False,46848,299,68,Beno Gutenberg,0.48813438235612827
George_Herriman,1880,False,67083,235,76,George Herriman,0.4879306666230783
Victor_McLaglen,1886,False,59398,595,43,Victor McLaglen,0.48790902851987333
Wallace_Beery,1885,False,70551,488,46,Wallace Beery,0.48775923137925914
Henry_H._Arnold,1886,False,46239,702,41,Henry H. Arnold,0.4871066476084575
Harry_Benjamin,1885,False,36006,480,51,Harry Benjamin,0.4863176482591609
Stanisław_Ignacy_Witkiewicz,1885,False,71833,295,60,Stanisław Ignacy Witkiewicz,0.48587645276759683
Guccio_Gucci,1881,False,41856,1869,29,Guccio Gucci,0.48562423474710253
Walter_Rudolf_Hess,1881,False,56022,321,58,Walter Rudolf Hess,0.48477620486873285
Sarvepalli_Radhakrishnan,1888,False,73768,204,78,Sarvepalli Radhakrishnan,0.4845789572194882
Lytton_Strachey,1880,False,44216,527,45,Lytton Strachey,0.48433114252504994
Giovanni_Messe,1883,False,50922,364,53,Giovanni Messe,0.48344387192020555
Marcel_Dupré,1886,False,76703,259,61,Marcel Dupré,0.48278510366839106
Theodor_Svedberg,1884,False,65539,247,65,Theodor Svedberg,0.48264063333368923
W._O._Bentley,1888,False,56099,204,79,Walter Owen Bentley,0.4826306035262853
Enoch_L._Johnson,1883,False,43635,1130,32,Enoch L. Johnson,0.4824501409015686
Fred_Quimby,1886,False,38145,661,40,Fred Quimby,0.48225664589939177
Alphonse_Juin,1888,False,44535,301,60,Alphonse Juin,0.482110607764678
Frank_Lloyd,1886,False,59730,359,50,Frank Lloyd,0.4815454904298304
James_B._Sumner,1887,False,54161,236,68,James Batcheller Sumner,0.48129333317366557
Yitzhak_Ben-Zvi,1884,False,54179,265,62,Yitzjak Ben-Zvi,0.48120416876690864
Clementine_Churchill,1885,False,63451,991,31,Clementine Hozier,0.4809545266289558
Prince_Yasuhiko_Asaka,1887,False,52249,271,60,Príncipe Asaka,0.4801174565549685
Donald_Crisp,1882,False,63438,335,50,Donald Crisp,0.4799352238486941
Ernest_Marsden,1889,False,44027,515,42,Ernest Marsden,0.4798557871912545
Edward_Rydz-Śmigły,1886,False,55019,224,68,Edward Rydz-Śmigły,0.47956190555166883
Ma_Rainey,1886,False,40253,499,43,Ma Rainey,0.47943160464141693
John_Franklin_Enders,1887,False,48885,305,55,John Franklin Enders,0.47928776181996985
Paul_Ehrenfest,1880,False,52787,466,42,Paul Ehrenfest,0.4787982070308426
Jerome_Kern,1885,False,54701,251,61,Jerome David Kern,0.47867954735171203
Carl_Van_Vechten,1880,False,56585,320,51,Carl van Vechten,0.478460400229008
Panait_Istrati,1884,False,67049,272,55,Panait Istrati,0.4783791233134128
"Philip_Noel-Baker,_Baron_Noel-Baker",1889,False,60437,246,60,Philip J. Noel-Baker,0.4781244307300648
Sessue_Hayakawa,1889,False,47693,245,63,Sessue Hayakawa,0.47803847472406313
Arnold_Zweig,1887,False,50857,266,58,Arnold Zweig,0.47766073591926617
Herbert_Spencer_Gasser,1888,False,57398,209,68,Herbert Spencer Gasser,0.47741824558823437
Mokichi_Okada,1882,False,32008,317,56,Mokichi Okada,0.4772844651217378
Richard_C._Tolman,1881,False,48572,442,42,Richard Tolman,0.4765466149940846
Pascin,1885,False,57970,271,54,Jules Pascin,0.47608489549166216
Tris_Speaker,1888,False,69581,136,95,Tris Speaker,0.4753331381633187
Paul_Wittgenstein,1887,False,56241,316,48,Paul Wittgenstein,0.4749537575155213
Walter_Johnson,1887,False,44836,288,53,Walter Johnson,0.47483717789349544
Paul_Lukas,1887,False,58249,423,40,Paul Lukas,0.4742495103856212
Seán_O'Casey,1880,False,44690,230,61,Sean O'Casey,0.4737823664592623
St_John_Philby,1885,False,50822,224,60,St John Philby,0.47328944709761905
Vajiravudh,1880,False,43017,299,50,Vajiravudh,0.47280890400504066
Amadeo_Bordiga,1889,False,47086,268,52,Amadeo Bordiga,0.4720235816840791
Ivan_Meštrović,1883,False,60162,209,59,Ivan Meštrović,0.47156370594306957
Karl_von_Frisch,1886,False,69467,92,144,Karl von Frisch,0.4710662372970236
Ed_Wynn,1886,False,47619,417,39,Ed Wynn,0.47063175555582004
Sveinn_Björnsson,1881,False,52359,178,65,Sveinn Björnsson,0.4686885589155039
Arnold_Bax,1883,False,68470,217,52,Arnold Bax,0.46815571930362615
Asta_Nielsen,1881,False,58760,277,45,Asta Nielsen,0.4678883596720174
Edward_Calvin_Kendall,1886,False,50690,249,49,Edward Calvin Kendall,0.4673856749328932
Jean_Hersholt,1886,False,56921,232,50,Jean Hersholt,0.4670093316027926
John_Boyd_Orr,1880,False,57648,186,59,John Boyd Orr,0.4669595111459218
Walther_Schwieger,1885,False,42609,209,57,Walther Schwieger,0.466939394249944
Giovanni_Gronchi,1887,False,48589,256,48,Giovanni Gronchi,0.4669136138281662
Pearl_White,1889,False,67108,175,60,Pearl White,0.46672169114003165
Roy_Chapman_Andrews,1884,False,44785,205,57,Roy Chapman Andrews,0.46670812165796816
Jan_Masaryk,1886,False,76428,330,38,Jan Masaryk,0.46649084157757936
Hugo_Schmeisser,1884,False,37508,222,55,Hugo Schmeisser,0.46624329633199785
Karel_Doorman,1889,False,55725,152,70,Karel Doorman,0.4662105727350665
Prince_Naruhiko_Higashikuni,1887,False,72348,206,51,Higashikuni Naruhiko,0.4658698605465839
Vittorio_Pozzo,1886,False,54859,415,35,Vittorio Pozzo,0.465603932091006
Edwin_Fischer,1886,False,50116,168,64,Edwin Fischer,0.46545811488691485
Takeo_Kurita,1889,False,47543,282,44,Takeo Kurita,0.46545781844762363
Tudor_Arghezi,1880,False,59630,149,69,Tudor Arghezi,0.46541211140961913
Leopold_Ružička,1887,False,61232,140,73,Leopold Ružička,0.46539150445776495
Manuel_Pérez_y_Curis,1884,False,38858,100,124,Manuel Pérez y Curis,0.46536562392480346
Manne_Siegbahn,1886,False,48374,149,72,Manne Siegbahn,0.4653196367479571
Christy_Mathewson,1880,False,47530,179,61,Christy Mathewson,0.4653183118598612
Rembrandt_Bugatti,1884,False,50896,336,39,Rembrandt Bugatti,0.46502088804707137
Corrado_Gini,1884,False,33142,364,40,Corrado Gini,0.4648137835379085
Joseph_Trumpeldor,1880,False,48751,163,64,Joseph Trumpeldor,0.4640645661363388
Florence_Lawrence,1886,False,74427,265,41,Florence Lawrence,0.46362955935393735
Döme_Sztójay,1883,False,69844,123,77,Döme Sztójay,0.46316388393977626
George_Minot,1885,False,48568,188,55,George Richards Minot,0.46273062122913516
Ernest_Ansermet,1883,False,65875,206,48,Ernest Ansermet,0.4622042374496459
Boris_Shaposhnikov,1882,False,46127,174,58,Borís Sháposhnikov,0.46181524388911127
Charles_Williams_(UK_writer),1886,False,62786,215,46,Charles Williams (escritor británico),0.4612091430903431
B._C._Forbes,1880,False,43746,461,32,B. C. Forbes,0.4611682320793991
Marion_Lorne,1883,False,33148,439,34,Marion Lorne,0.46093173323454273
Jacob_Epstein,1880,False,43451,192,53,Jacob Epstein,0.4608292444579915
Jacob_L._Devers,1887,False,45007,138,70,Jacob Devers,0.46049470844556084
Rupert_Brooke,1887,False,66645,420,31,Rupert Brooke,0.4603678338006815
Robert_A._Taft,1889,False,61546,187,50,Robert Taft,0.4601785704029399
Lotte_Lehmann,1888,False,48700,147,64,Lotte Lehmann,0.46005937279690656
Jean_Patou,1880,False,59692,399,32,Jean Patou,0.45998644224265123
Hugh_Lofting,1886,False,72387,155,56,Hugh Lofting,0.4597057252258716
Hannes_Kolehmainen,1889,False,54840,194,49,Hannes Kolehmainen,0.4595690071351882
John_Edensor_Littlewood,1885,False,48554,576,28,John Edensor Littlewood,0.4593812483425436
Leo_Geyr_von_Schweppenburg,1886,False,55511,163,55,Leo Geyr von Schweppenburg,0.45864248328493595
Louis_St._Laurent,1882,False,52470,162,55,Louis St. Laurent,0.45794034623061547
Joe_Masseria,1886,False,33998,1621,21,Joe Masseria,0.4574283624553372
Evelyn_Nesbit,1884,False,64406,483,28,Evelyn Nesbit,0.4573987005400609
Leon_Schlesinger,1884,False,44051,367,33,Leon Schlesinger,0.45692566787763195
"E._F._L._Wood,_1st_Earl_of_Halifax",1881,False,50134,257,39,E. F. L. Wood,0.4567691006394401
Monteiro_Lobato,1882,False,37649,562,28,Monteiro Lobato,0.4565661813041521
Sara_Teasdale,1884,False,52865,320,34,Sara Teasdale,0.4563169909451028
Gian_Francesco_Malipiero,1882,False,85058,176,45,Gian Francesco Malipiero,0.45557646513525196
"Adolf_Friedrich_VI,_Grand_Duke_of_Mecklenburg-Strelitz",1882,False,112400,97,75,Adolfo Federico VI de Mecklemburgo-Strelitz,0.4553548342867709
Alexander_Woollcott,1887,False,67137,143,53,Alexander Woollcott,0.45359095872372623
Fritz_Reiner,1888,False,46778,190,45,Fritz Reiner,0.45346340997176426
William_Ronald_Dodds_Fairbairn,1889,False,39421,232,40,Ronald Fairbairn,0.4527940118972924
Gladys_Cooper,1888,False,50656,257,36,Gladys Cooper,0.45260102818943776
Lima_Barreto,1881,False,50064,174,46,Lima Barreto,0.452006228198907
Fan_S._Noli,1882,False,56996,82,99,Fan S. Noli,0.45197654369129253
Arnold_Rothstein,1882,False,29432,1270,21,Arnold Rothstein,0.4517165311556147
John_Foulds,1880,False,50606,107,71,John Foulds,0.4514604962641331
Allan_Dwan,1885,False,61713,235,36,Allan Dwan,0.45142201826347106
Masaharu_Homma,1887,False,61033,179,43,Homma Masaharu,0.4513823557273632
Risto_Ryti,1889,False,66679,91,81,Risto Heikki Ryti,0.4513026538216076
Louis_Durey,1888,False,71468,133,53,Louis Durey,0.4512635739446179
Artur_Schnabel,1882,False,49158,234,37,Artur Schnabel,0.45090083036371637
Bertram_Ramsay,1883,False,32730,262,37,Bertram Ramsay,0.4508939166881715
Archie_Hahn,1880,False,34936,142,53,Archie Hahn,0.44791334016283724
Hidetsugu_Yagi,1886,False,44440,136,52,Hidetsugu Yagi,0.4474971112611891
Harukichi_Hyakutake,1888,False,47962,133,52,Harukichi Hyakutake,0.4472686749378704
Henry_J._Kaiser,1882,False,40172,240,35,Henry John Kaiser,0.44705723019364524
Luis_Cluzeau_Mortet,1888,False,45674,102,68,Luis Cluzeau Mortet,0.4469243001865769
Christian_Mortensen,1882,False,46392,600,23,Christian Mortensen,0.44690091780063546
Warner_Baxter,1889,False,61633,278,30,Warner Baxter,0.44631292094086816
Norman_Haworth,1883,False,52587,94,70,Walter Norman Haworth,0.44558724127845234
Francesco_Baracca,1888,False,44436,315,29,Francesco Baracca,0.44524852145829913
Herbert_Silberer,1882,False,47318,73,99,Herbert Silberer,0.44477951163299306
Walther_Meissner,1882,False,45112,162,42,Walter Meissner,0.44432342722502605
Grover_Cleveland_Alexander,1887,False,47333,129,50,Grover Cleveland Alexander,0.4442837140509997
William_Frawley,1887,False,72271,220,32,William Frawley,0.44415161301894085
Richard_Maury,1882,False,42277,187,38,Richard Maury,0.4437890059491285
Edith_Evans,1888,False,57171,134,46,Edith Evans,0.44352643041257483
Geraldine_Farrar,1882,False,46196,176,38,Geraldine Farrar,0.44248332651292055
Victor_Goldschmidt,1888,False,52018,120,50,Victor Moritz Goldschmidt,0.4422232197093454
Mills_Brothers,1889,False,43377,221,33,Mills Brothers,0.44199855200084576
Mamie_Smith,1883,False,35867,285,29,Mamie Smith,0.4406918388604654
Adrian_Boult,1889,False,49473,115,50,Adrian Boult,0.44014953963869446
Norman_Scott_(Medal_of_Honor),1889,False,41008,151,41,Norman Scott,0.43992182555120135
Giles_Gilbert_Scott,1880,False,41656,161,39,Giles Gilbert Scott,0.4398894127053257
Sybil_Thorndike,1882,False,51904,208,32,Sybil Thorndike,0.43987486864796077
Hugh_Walpole,1884,False,42609,155,39,Hugh Walpole,0.43875473544282373
Pat_Sullivan_(film_producer),1885,False,40772,288,27,Pat Sullivan,0.43784178576283145
George_Fitzmaurice,1885,False,48562,123,44,George Fitzmaurice,0.437006584096656
Ernest_Bevin,1881,False,38328,228,30,Ernest Bevin,0.4367175197897208
Sir_Richard_O'Connor,1889,False,38047,175,35,Richard O'Connor,0.4365781532530733
Rebecca_Helferich_Clarke,1886,False,48004,109,48,Rebecca Clarke,0.43604031644715296
Gunichi_Mikawa,1888,False,55718,88,57,Gun'ichi Mikawa,0.4353074640046806
Milan_Vidmar,1885,False,46698,115,45,Milan Vidmar,0.4351246536267992
Aritomo_Gotō,1888,False,53181,110,45,Aritomo Gotō,0.43438544744746255
Rudolf_Weigl,1883,False,44012,191,31,Rudolf Weigl,0.434193623649863
James_F._Byrnes,1882,False,37466,206,30,James F. Byrnes,0.4334758124378086
Friedrich_Kellner,1885,False,53707,75,66,Friedrich Kellner,0.43335876202083173
Raymonde_de_Laroche,1882,False,54840,192,29,Raymonde de Laroche,0.43237986890189684
Kid_Ory,1886,False,42898,180,31,Kid Ory,0.4321146323474115
Carlo_Michelstaedter,1887,False,43312,151,34,Carlo Michelstaedter,0.43120123698823304
Elsa_Maxwell,1883,False,39746,198,29,Elsa Maxwell,0.430869405936899
Sylvia_Beach,1887,False,39277,227,27,Sylvia Beach,0.4308144179597627
Claude_Dornier,1884,False,48576,168,30,Claudius Dornier,0.42909271032989604
Walter_H._Schottky,1886,False,48469,179,28,Walter H. Schottky,0.42732323498683583
Lauri_Kristian_Relander,1883,False,51519,72,59,Lauri Kristian Relander,0.42706569979587167
Edna_Ferber,1887,False,67092,147,30,Edna Ferber,0.427025133767686
Thomas_Blamey,1884,False,59014,101,40,Thomas Blamey,0.4265466196474742
Ichirō_Hatoyama,1883,False,55829,107,38,Ichirō Hatoyama,0.4260431661683356
Fritz_Pfleumer,1881,False,35498,85,51,Fritz Pfleumer,0.4259777774510853
Thomas_de_Hartmann,1885,False,29799,161,31,Thomas de Hartmann,0.4256431236250157
Conrad_Aiken,1889,False,39778,166,29,Conrad Aiken,0.42537189704708755
Thomas_Hart_Benton_(painter),1889,False,41970,286,22,Thomas Hart Benton,0.4252471633825853
Clive_Bell,1881,False,47596,205,25,Clive Bell,0.42482027019993424
Nikolaos_Plastiras,1883,False,53650,90,43,Nikolaos Plastiras,0.4244191998296608
John_Curtin,1885,False,56203,134,31,John Curtin,0.4243297284390229
Ring_Lardner,1885,False,41691,179,27,Ring Lardner,0.4241694037324867
Othmar_Schoeck,1886,False,43959,123,34,Othmar Schoeck,0.42415902731853944
Waldemar_Bonsels,1880,False,41046,164,28,Waldemar Bonsels,0.4233234684911665
Kurt_Atterberg,1887,False,36738,150,30,Kurt Atterberg,0.42328054560845957
Roderick_McMahon,1882,False,33829,1480,14,Roderick McMahon,0.42292877144763663
L._S._Lowry,1887,False,69283,256,21,L.S. Lowry,0.42292160303586
Edward_Everett_Horton,1886,False,45085,149,29,Edward Everett Horton,0.42281437524504856
Ralph_Craig,1889,False,36955,103,39,Ralph Craig,0.4227050720225032
Lancelot_Holland,1887,False,43907,113,35,Lancelot Ernest Holland,0.422472755863342
Malcolm_Campbell,1885,False,63941,254,21,Malcolm Campbell,0.4221609868542657
Hans_Wilsdorf,1881,False,35285,202,25,Hans Wilsdorf,0.42213347239158017
Tôn_Đức_Thắng,1888,False,54420,211,23,Tôn Đức Thắng,0.4216291312995703
Adolphe_Pégoud,1889,False,42761,75,50,Adolphe Pégoud,0.42122321776469335
Reggie_Walker,1889,False,33112,93,42,Reggie Walker,0.42112519289944755
José_Mendes_Cabeçadas,1883,False,51614,163,26,José Mendes Cabeçadas,0.4207046884457345
Owen_Moore,1886,False,43698,148,28,Owen Moore,0.4204870384938833
A._Y._Jackson,1882,False,43016,125,31,A. Y. Jackson,0.4199810352014731
William_Joseph_Simmons,1880,False,26315,437,18,William J. Simmons,0.4182275715213379
Moroni_Olsen,1889,False,41750,77,44,Moroni Olsen,0.41706218778942766
Anna_Q._Nilsson,1888,False,43111,129,28,Anna Q. Nilsson,0.4158330188908879
George_Abbott,1887,False,43493,142,26,George Abbott,0.4150880836321401
Angelo_Iachino,1889,False,40003,110,31,Angelo Iachino,0.4149302664107002
Sax_Rohmer,1883,False,35406,252,20,Sax Rohmer,0.4145620384169402
Beulah_Bondi,1889,False,58186,130,26,Beulah Bondi,0.41421435434927373
Damon_Runyon,1880,False,66563,316,17,Damon Runyon,0.41350537321121755
Joseph_Bech,1887,False,43417,86,36,Joseph Bech,0.4132689563767308
Geoffrey_de_Havilland,1882,False,52652,102,30,Geoffrey de Havilland,0.4125055661404257
Sara_Allgood,1880,False,50293,135,25,Sara Allgood,0.4123079120831998
Eddie_Collins,1887,False,42530,103,30,Eddie Collins,0.4113790568083201
Shōji_Nishimura,1889,False,48350,108,28,Shōji Nishimura,0.41050083049369873
Milan_Rastislav_Štefánik,1880,False,41742,89,33,Milan Rastislav Štefánik,0.41035464520470744
Geoffrey_Fisher,1887,False,46713,129,25,Geoffrey Fisher,0.4103133666694861
Noah_Beery,1882,False,46112,88,32,Noah Beery,0.4091742678352236
Marie_Doro,1882,False,29728,82,36,Marie Doro,0.408625293487829
Hiroaki_Abe,1889,False,43460,91,31,Hiroaki Abe,0.40853748694345954
Francis_X._Bushman,1883,False,57343,135,23,Francis X. Bushman,0.4084940174805649
Tadeusz_Kutrzeba,1886,False,43589,131,24,Tadeusz Kutrzeba,0.4080802950714164
Sophie_Tucker,1884,False,60489,258,17,Sophie Tucker,0.4079508402426951
Louis_Chauvin,1881,False,38460,248,18,Louis Chauvin,0.4078089943083886
Hitoshi_Imamura,1886,False,45881,128,23,Hitoshi Imamura,0.40530022511052277
Hubert_Harrison,1883,False,45300,136,22,Hubert Harrison,0.4045960624143924
Wilhelm_Backhaus,1884,False,43866,165,20,Wilhelm Backhaus,0.40449988383047947
Maude_Fealy,1881,False,44282,135,22,Maude Fealy,0.40421178475185376
Marguerite_Clark,1883,False,44858,84,30,Marguerite Clark,0.40414440861587575
Christabel_Pankhurst,1880,False,55767,406,14,Christabel Pankhurst,0.40330240214293817
Alfred_Noyes,1880,False,46099,99,26,Alfred Noyes,0.4032801575528205
Aurora_Quezon,1888,False,41223,66,37,Aurora Aragón,0.40321487832136466
Lothrop_Stoddard,1883,False,87055,106,23,Lothrop Stoddard,0.4030922647765554
Charles_Tomlinson_Griffes,1884,False,41093,98,26,Charles Tomlinson Griffes,0.40214562078585603
Edna_May_Oliver,1883,False,53064,144,20,Edna May Oliver,0.401746131860177
Spring_Byington,1886,False,74011,122,21,Spring Byington,0.401586146062374
Una_O'Connor_(actress),1880,False,39090,149,20,Una O'Connor,0.4007360771243942
George_S._Kaufman,1889,False,98861,122,20,George S. Kaufman,0.40039381318760814
Tuti_Yusupova,1880,False,36485,189,18,Tuti Yusúpova,0.4003725456084889
Margaret_Caroline_Anderson,1886,False,45152,108,23,Margaret Caroline Anderson,0.39961520872184764
Anthony_Wilding,1883,False,72129,66,31,Anthony Wilding,0.39905465128235845
Jan_Kubelík,1880,False,42130,69,32,Jan Kubelík,0.3989187895232566
Leonid_Kulik,1883,False,42358,77,29,Leonid Kulik,0.3987946126661884
Willem_Drees,1886,False,62323,81,26,Willem Drees,0.39787164626580523
W._T._Cosgrave,1880,False,44888,73,29,William Thomas Cosgrave,0.3970887796744871
George_David_Birkhoff,1884,False,79429,160,17,George David Birkhoff,0.396990101251249
Daniel_Jones_(phonetician),1881,False,33904,147,19,Daniel Jones (fonetista),0.39625203593657676
Paul_Leni,1885,False,41656,157,18,Paul Leni,0.39615210558846525
Seán_T._O'Kelly,1882,False,43389,86,25,Seán T. O'Kelly,0.3958096832080854
Monty_Woolley,1888,False,80818,93,22,Monty Woolley,0.395639911893885
Armas_Launis,1884,False,43831,56,36,Armas Launis,0.3953319914093696
Jack_Holt_(actor),1888,False,42039,96,23,Jack Holt,0.39513886971205264
Paul_Popenoe,1888,False,30896,94,24,Paul Popenoe,0.3945897092260601
Vinayak_Damodar_Savarkar,1883,False,45612,117,20,Vinaiak Dámodar Savarkar,0.394371054258253
María_Capovilla,1889,False,49652,504,12,María Capovilla,0.3941829778250393
Rajendra_Prasad,1884,False,59787,174,16,Rajendra Prasad,0.3935297366497292
Roger_Nash_Baldwin,1884,False,45795,80,25,Roger Nash Baldwin,0.39349985206573845
Nick_LaRocca,1889,False,38181,99,22,Nick LaRocca,0.39315228125739926
Louis_Charles_Breguet,1880,False,47048,78,25,Louis Charles Breguet,0.39272732499935586
Cathleen_Nesbitt,1888,False,85494,108,19,Cathleen Nesbitt,0.39255746521523427
Gerhard_Ritter,1888,False,46738,133,18,Gerhard Ritter,0.3920939786575341
Tommy_Burns_(boxer),1881,False,38388,215,15,Tommy Burns,0.39168953623320607
Heinrich_Barkhausen,1881,False,43932,81,24,Heinrich Barkhausen,0.3916174510650485
Reginald_Barker,1886,False,45779,80,24,Reginald Barker,0.3914228986396181
Joyce_Cary,1888,False,50888,89,22,Joyce Cary,0.3913270175817582
Volodymyr_Vynnychenko,1880,False,67799,44,40,Volodímir Vinnichenko,0.39091010687258926
Lynn_Thorndike,1882,False,48365,87,22,Lynn Thorndike,0.3902148221956692
Alfons_Maria_Jakob,1884,False,44032,87,22,Alfons Maria Jakob,0.3896283143485328
Lynn_Fontanne,1887,False,50789,76,23,Lynn Fontanne,0.3879860961557046
Hugo_Black,1886,False,32376,110,19,Hugo Black,0.3872085241016112
Sylvia_Pankhurst,1882,False,50932,348,12,Sylvia Pankhurst,0.3871915268565539
Knute_Rockne,1888,False,40068,96,20,Knute Rockne,0.3871469305138327
Sisavang_Vong,1885,False,41092,88,21,Sisavang Vong,0.3870738397795817
Ilo_Wallace,1888,False,46421,64,26,Ilo Wallace,0.3869217351079353
August_Zaleski,1883,False,52384,60,27,August Zaleski,0.3868192864139317
Elsie_Ferguson,1883,False,47422,79,22,Elsie Ferguson,0.38665885621799967
Texas_Guinan,1884,False,46052,70,24,Texas Guinan,0.3864633118939671
Boshirō_Hosogaya,1888,False,36791,103,19,Boshirō Hosogaya,0.38596083813757476
Will_Hay,1888,False,49210,56,28,Will Hay,0.38523615339220796
Sadayoshi_Tanabe,1888,False,42244,44,37,Sadayoshi Tanabe,0.38508693829454926
Hans_Gerhard_Creutzfeldt,1885,False,35715,74,23,Hans-Gerhard Creutzfeldt,0.38480858157464204
Ugo_Cavallero,1880,False,56944,180,14,Ugo Cavallero,0.3847935825932043
Clara_Blandick,1880,False,80913,259,12,Clara Blandick,0.3836392594481504
Jacques_Majorelle,1886,False,33198,81,21,Jacques Majorelle,0.38284393562869584
John_Tovey,1885,False,57402,73,21,John Tovey,0.38245670763343176
Robert_L._Ghormley,1883,False,38867,47,32,Robert Lee Ghormley,0.38187803815622856
Roy_Geiger,1885,False,30537,113,17,Roy Stanley Geiger,0.38101017931558756
Harald_Sverdrup_(oceanographer),1888,False,48724,50,28,Harald Sverdrup,0.38032127459900134
Zhou_Zuoren,1885,False,32736,63,24,Zhou Zuoren,0.3802822363144205
Léon_Noël,1888,False,36627,54,27,Léon Noël,0.38026447741080466
Florence_Turner,1885,False,43777,48,29,Florence Turner,0.37941847692486
Lew_Cody,1884,False,38028,71,21,Lew Cody,0.37899458976186384
William_Hood_Simpson,1888,False,45768,122,15,William Hood Simpson,0.37781192996014884
Sam_Crawford,1880,False,52372,102,16,Sam Crawford,0.3774387835123813
Suzanne_Duchamp,1889,False,33210,188,13,Suzanne Duchamp,0.37724318390996353
Mary_Boland,1882,False,47295,68,20,Mary Boland,0.37614284465005393
Thomas_Sopwith,1888,False,49026,56,23,Thomas Sopwith,0.37600838909590395
Charles_Ruggles,1886,False,48265,88,17,Charles Ruggles,0.3760075003344197
"George_""Gabby""_Hayes",1885,False,51400,86,17,"George ""Gabby"" Hayes",0.37561791351174395
Gabriel_Voisin,1880,False,41304,115,15,Gabriel Voisin,0.37551319811378636
Tom_Phillips_(Royal_Navy_officer),1888,False,35760,102,16,Thomas Phillips (almirante),0.37519064463348406
Broncho_Billy_Anderson,1880,False,61983,120,14,Broncho Billy Anderson,0.37445110103850887
Zoltán_Tildy,1889,False,45783,126,14,Zoltán Tildy,0.37411170498824065
List_of_Dutch_supercentenarians#Geertje_Roelinga-de_Groot,1887,False,40785,127,14,Anexo:Supercentenarios neerlandeses,0.37365656248146295
List_of_Dutch_supercentenarians#Ann_Jemimia_Flower,1885,False,40785,127,14,Anexo:Supercentenarios neerlandeses,0.37365656248146295
Robert_Kerr_(athlete),1882,False,36273,44,28,Robert Kerr (atleta),0.3729302986304121
Jisaburō_Ozawa,1886,False,50585,97,15,Jisaburō Ozawa,0.37163817361484375
Władysław_Raczkiewicz,1885,False,42892,99,15,Władysław Raczkiewicz,0.37132109120812135
Shigeyoshi_Inoue,1889,False,53116,132,13,Shigeyoshi Inoue,0.3710780808278666
Frank_Jack_Fletcher,1885,False,41356,343,10,Frank Jack Fletcher,0.3702630413459201
Papa_Celestin,1884,False,39214,59,20,Papa Celestin,0.36977244817737215
Matt_Moore_(actor),1888,False,36464,68,18,Matthew Moore,0.36892990336325077
Mario_Talavera,1885,False,32276,85,16,Mario Talavera,0.36891672501186146
Princess_Sophie_of_Schönburg-Waldenburg,1885,False,103756,45,22,Sofía de Albania,0.36870011149140314
Richard_Oswald,1880,False,40755,105,14,Richard Oswald,0.3683047681729669
Samuel_Berger_(boxer),1884,False,33814,48,23,Samuel Berger,0.36755176698050834
Anna_Rüling,1880,False,32037,73,17,Theo Anna Sprüngli,0.36741951724245164
Oliver_Kirk,1884,False,33259,45,24,Oliver Kirk,0.36667923525514684
Johan_Laidoner,1884,False,43976,50,21,Johan Laidoner,0.3663959132687188
Walther_Wever_(general),1887,False,55460,71,16,Walther Wever,0.3660621987453184
Carl_Ebert,1887,False,42626,39,26,Carl Ebert,0.3652645112367975
Henri_Dentz,1881,False,45901,80,15,Henri Dentz,0.3650947279665842
Markus_Reiner,1886,False,41658,55,19,Markus Reiner,0.3647992820848671
Thomas_J._Moore,1883,False,32159,50,21,Thomas J. Moore,0.3646098473062676
Reginald_Farrer,1880,False,57326,46,21,Reginald John Farrer,0.3644053230317404
Miles_Malleson,1888,False,56582,64,16,Miles Malleson,0.3625888015625986
Olav_Aukrust,1883,False,31343,47,21,Olav Aukrust,0.3619634324954928
Irene_Fenwick,1887,False,37645,118,12,Irene Fenwick,0.36053659737981325
Mary_Nash,1884,False,39467,53,18,Mary Nash (actriz),0.3602727640745007
James_Lightbody,1882,False,33392,36,26,Jim Lightbody,0.36019911940379995
Marthe_Richard,1889,False,43821,90,13,Marthe Richard,0.3593288887487012
Hubert_Wilkins,1888,False,52412,59,16,Hubert Wilkins,0.3593132193936626
Aleksandras_Stulginskis,1885,False,44901,60,16,Aleksandras Stulginskis,0.3590987120804993
Alcide_Nunez,1884,False,36783,48,19,Alcide Núñez,0.35881896173830424
Raimu,1883,False,80039,95,12,Raimu,0.358481821465673
Anita_Loos,1888,False,40059,276,9,Anita Loos,0.3567703760532828
Ture_Nerman,1886,False,27721,33,27,Ture Nerman,0.35655217690091295
Eleanor_Farjeon,1881,False,46549,80,13,Eleanor Farjeon,0.3561276746154503
Georges_Mandel,1885,False,56469,114,11,Georges Mandel,0.35545563671812813
Toivo_Kuula,1883,False,40210,46,18,Toivo Kuula,0.3548867254563238
Jack_Hoxie,1885,False,47916,42,19,Jack Hoxie,0.3548166269567152
Wladimir_Burliuk,1886,False,33061,55,16,Vladímir Burliuk,0.3543349197856003
Frederick_Lane,1888,False,32382,61,15,Frederick Lane,0.3542118543069663
Zack_Wheat,1888,False,72405,46,16,Zack Wheat,0.35162839289596
Anton_Köllisch,1888,False,41918,197,9,Anton Köllisch,0.3504698382238982
Milton_Sills,1882,False,45678,97,11,Milton Sills,0.35011829683708084
Bessie_Barriscale,1884,False,51688,46,16,Bessie Barriscale,0.3500092497696207
Kamato_Hongo,1887,False,34902,101,11,Kamato Hongo,0.3498059240597592
Edna_Goodrich,1883,False,41083,31,23,Edna Goodrich,0.34918241991897875
Pauline_Frederick,1883,False,93906,58,13,Pauline Frederick,0.3491397689141137
Theodore_Kosloff,1882,False,50166,49,15,Theodore Kosloff,0.34870396373802065
Millard_Harmon,1888,False,31371,34,21,Millard Harmon,0.3481293532329649
Laurette_Taylor,1883,False,41571,41,17,Laurette Taylor,0.34755617547462503
Ferenc_Münnich,1886,False,36111,49,15,Ferenc Munnich,0.3470436330930007
Stanley_Bruce,1883,False,52279,59,13,Stanley Bruce,0.34701178089065965
Belle_da_Costa_Greene,1883,False,32262,33,21,Belle da Costa Greene,0.3469318689241046
Marjorie_Rambeau,1889,False,83002,55,13,Marjorie Rambeau,0.3467736954568893
H.N._Werkman,1882,False,36487,70,12,Hendrik Nicolaas Werkman,0.34558680172873457
Ugo_Pasquale_Mifsud,1889,False,53013,26,25,Ugo Pasquale Mifsud,0.3450791556185129
Mary_Alden,1883,False,46665,98,10,Mary Alden,0.34348727152477954
George_Preca,1880,False,31453,103,10,Jorge Preca,0.34277937609606207
Chūichi_Nagumo,1887,False,61819,13,128,Chūichi Nagumo,0.34237071314533174
Fritz_August_Breuhaus_de_Groot,1883,False,30695,53,13,Fritz August Breuhaus,0.3407455234928243
Paul_Legentilhomme,1884,False,31890,42,15,Paul Legentilhomme,0.34063442830021645
Robinson_Jeffers,1887,False,38230,125,9,Robinson Jeffers,0.34021452893730075
Percy_Kilbride,1888,False,39449,57,12,Percy Kilbride,0.33951466195695507
Marjorie_Newell_Robb,1889,False,35680,192,8,Marjorie Newell Robb,0.3388178908142011
Michael_Somogyi,1883,False,32030,69,11,Michael Somogyi,0.3387221897966509
Mariano_Andreu,1888,False,38156,48,13,Marià Andreu,0.33841307666178916
Hans_Moser_(actor),1880,False,44082,75,10,Hans Moser (actor),0.3360339894965462
Heinrich_Schlusnus,1888,False,28638,46,13,Heinrich Schlusnus,0.33548532466327957
James_Cruze,1884,False,54584,67,10,James Cruze,0.3337985668491226
Holland_Smith,1882,False,42023,242,7,Holland Smith,0.3312413436119456
Marion_Leonard,1881,False,38913,35,14,Marion Leonard,0.33081253165258
Konstantinos_Tsaldaris,1884,False,26432,32,15,Konstantinos Tsaldaris,0.3288607863864702
George_Bancroft_(actor),1882,False,52495,99,8,George Bancroft (actor),0.32662294114515117
Roland_Young,1887,False,76182,84,8,Roland Young,0.3242176683463623
Margarita_Fischer,1886,False,95438,45,10,Margarita Fischer,0.32371239060306173
Wyndham_Halswelle,1882,False,31049,43,11,Wyndham Halswelle,0.3235829474065695
Philip_Francis_Nowlan,1888,False,42308,49,10,Philip Francis Nowlan,0.3231788913451472
Giovanni_Battista_Caproni,1886,False,53955,343,6,Giovanni Battista Caproni,0.321766310672205
Doris_Keane,1881,False,38952,20,19,Doris Keane,0.31927227444963846
Peter_Fraser_(New_Zealand_politician),1884,False,43882,42,10,Peter Fraser,0.3183149335531182
Leevi_Madetoja,1887,False,53602,64,8,Leevi Madetoja,0.3158638872426565
Lloyd_Fredendall,1883,False,40188,217,6,Lloyd Fredendall,0.31376807565853887
"John_Jacob_Astor,_1st_Baron_Astor_of_Hever",1886,False,46012,43,9,John Jacob Astor (raquetas),0.31228792545787065
Paul_Ramadier,1888,False,47696,88,7,Paul Ramadier,0.31218071784669754
Valeska_Suratt,1882,False,63927,49,8,Valeska Suratt,0.3091213076610336
Ethel_Clayton,1882,False,64571,70,7,Ethel Clayton,0.30801076544262174
Sylvia_Ashton,1880,False,43645,37,9,Sylvia Ashton,0.3071900987107266
Nell_Brinkley,1886,False,39818,23,12,Nell Brinkley,0.3053737128331467
Harry_Ruby,1885,False,45470,62,7,Harry Ruby,0.3037196431949743
Louis_Wolheim,1880,False,76819,88,6,Louis Wolheim,0.2999517120826392
Virginia_Pearson,1886,False,62755,35,8,Virginia Pearson,0.2987144630212584
Otto_Froitzheim,1884,False,26985,38,8,Otto Froitzheim,0.2981613261033267
Walter_Nash,1882,False,39727,28,9,Walter Nash,0.29709497331642826
Arthur_S._Carpender,1884,False,94449,24,9,Arthur S. Carpender,0.2941936408821151
Gaby_Deslys,1881,False,69590,66,6,Gaby Deslys,0.29340740443954283
Enrico_Mizzi,1885,False,55779,41,7,Enrico Mizzi,0.29338330272146235
Harry_Hillman,1881,False,28753,37,7,Harry Hillman,0.2880383399339415
Petros_Voulgaris,1884,False,26995,17,11,Petros Vulgaris,0.2859008016408762
William_D._Francis,1889,False,38697,27,7,William Douglas Francis,0.2792749922055803
Robert_Esnault-Pelterie,1881,False,59630,36,6,Robert Esnault-Pelterie,0.277768302333554
Harold_Rainsford_Stark,1880,False,37028,60,5,Harold R. Stark,0.27227683103751427
Chester_Conklin,1886,False,61859,216,4,Chester Conklin,0.26872067182112797
Forrest_Smithson,1884,False,27607,28,6,Forrest Smithson,0.26813173957625536
Johnny_Gruelle,1880,False,31373,24,6,Johnny Gruelle,0.26379523819787687
Paul_Pilgrim,1883,False,26434,18,7,Paul Pilgrim,0.26360834474760125
Rudolf_Ramek,1881,False,41782,34,5,Rudolf Ramek,0.25982256073026494
André_François-Poncet,1887,False,56085,69,4,André François-Poncet,0.25277470289016407
Ralph_DePalma,1884,False,31338,71,4,Ralph DePalma,0.25168792484018465
James_Stephenson,1889,False,54773,64,4,James Stephenson,0.25146445910273046
Daniel_E._Barbey,1889,False,41509,15,6,Daniel E. Barbey,0.2481229621899324
Oscar_A._C._Lund,1885,False,34405,27,4,Oscar A. C. Lund,0.23331755409904203
Tore_Ørjasæter,1886,False,31318,24,4,Tore Ørjasæter,0.23031339443655943
Charles_Reisner,1887,False,62227,76,3,Charles Reisner,0.2190409781808641
John_Willard_(playwright),1885,False,38073,36,3,John Willard,0.20802622935123194
George_Kenney,1889,False,61777,27,3,George Kenney,0.2041008936707265
Michał_Sopoćko,1888,False,41615,82,1,Michał Sopoćko,0.15721807859397588
Stuart_Paton,1883,False,55720,39,2,Stuart Paton,0.15242335638687926
Dorothy_Donnelly,1880,False,39340,27,1,Dorothy Donnelly,0.14891600333864582
Olivia_Nordgren,1880,False,22878,12,2,Olivia Nordgren,0.13897810053952547
Faisal_I_of_Iraq,1885,False,112300,0,144,Fáysal I de Irak,0.1293544309867441
Nobutake_Kondō,1886,False,58888,0,32,Kondō Nobutake,0.12423251517688322
Ma_Zhanshan,1885,False,55521,0,28,Ma Zhanshan,0.12359749906468274
Ya'akov_Cohen_(writer),1881,False,25586,0,22,Yaacov Cahan,0.12190761479081673
Phraya_Manopakorn_Nititada,1884,False,51198,0,18,Phraya Manopakorn Nititada,0.12122866455635331
Franklin_Pierce_Adams,1881,False,34577,0,17,Franklin Pierce Adams,0.12064394417021011
Lascelles_Abercrombie,1881,False,37155,0,15,Lascelles Abercrombie,0.11989228651010389
Susan_Sutherland_Isaacs,1885,False,44041,0,14,Susan Sutherland Isaacs,0.1195279486133197
Felix_Frankfurter,1882,False,32669,0,12,Felix Frankfurter,0.11822664001761261
Dimitrana_Ivanova,1881,False,44181,0,11,Dimitrana Ivanova,0.11771974173980065
Mineichi_Koga,1885,False,53019,0,10,Mineichi Koga,0.11701939835561617
Percy_Grainger,1882,False,55251,0,7,Percy Grainger,0.11347321414749184
Toyoda_Soemu,1885,False,54501,0,7,Soemu Toyoda,0.11346620958912591
Margit_Slachta,1884,False,48768,0,7,Margit Slachta,0.11340862195797909
Gisela_Richter,1882,False,40955,0,6,Gisela M. A. Richter,0.11143139372678308
Willis_O'Brien,1886,False,49091,0,5,Willis O'Brien,0.10893174672617363
William_Temple_(bishop),1881,False,25892,1,5,William Temple (arzobispo),0.10860488099822806
Anne_Bauchens,1882,False,35742,0,4,Anne Bauchens,0.10492143126115218
Emma_Asson,1889,False,36630,0,3,Emma Asson,0.0983526174833322
"Max_Moody,_Sr.",1883,,1,1,1,?,0.05448825167540282
George_Bagration_of_Mukhrani,1884,,1,1,1,?,0.05448825167540282
Johanna_Westerdijk,1883,,1,1,1,?,0.05448825167540282
Herb_Byrne,1887,,1,1,1,?,0.05448825167540282
Louise_Schroeder,1887,,1,1,1,?,0.05448825167540282
Charlie_Parker_(cricketer),1882,,1,1,1,?,0.05448825167540282
Heikki_Ritavuori,1880,,1,1,1,?,0.05448825167540282
Vernon_Castle,1887,,1,1,1,?,0.05448825167540282
Leonie_von_Meusebach–Zesch,1882,,1,1,1,?,0.05448825167540282
G._Murray_Hulbert,1881,,1,1,1,?,0.05448825167540282
Amedeo_Maiuri,1886,,1,1,1,?,0.05448825167540282
Isabel_J._Cox,1882,,1,1,1,?,0.05448825167540282
George_Kenner,1888,,1,1,1,?,0.05448825167540282
Dimitrios_Semsis,1883,,1,1,1,?,0.05448825167540282
Orrick_Johns,1887,,1,1,1,?,0.05448825167540282
Alice_Hollister,1886,,1,1,1,?,0.05448825167540282
William_Whitworth,1884,,1,1,1,?,0.05448825167540282
Yitzhak_Baer,1888,,1,1,1,?,0.05448825167540282
Alberto_di_Jorio,1884,,1,1,1,?,0.05448825167540282
Bradbury_Robinson,1884,,1,1,1,?,0.05448825167540282
Donald_B._Beary,1888,,1,1,1,?,0.05448825167540282
Valli_Valli,1882,,1,1,1,?,0.05448825167540282
María_Beatriz_del_Rosario_Arroyo,1884,,1,1,1,?,0.05448825167540282
Oswald_Short,1883,,1,1,1,?,0.05448825167540282
C._E._Woolman,1889,,1,1,1,?,0.05448825167540282
Doris_Große,1884,,1,1,1,?,0.05448825167540282
Hawthorne_C._Gray,1889,,1,1,1,?,0.05448825167540282
Louis_Wagner,1882,,1,1,1,?,0.05448825167540282
Jacob_Fichman,1881,,1,1,1,?,0.05448825167540282
Benjamin_(Fedchenkov),1880,,1,1,1,?,0.05448825167540282
R._Williams_Parry,1884,,1,1,1,?,0.05448825167540282
Thomas_Quinlan_(impresario),1881,,1,1,1,?,0.05448825167540282
Eduard_C._Lindeman,1885,,1,1,1,?,0.05448825167540282
MacGillivray_Milne,1882,,1,1,1,?,0.05448825167540282
Bede_Fanning,1885,,1,1,1,?,0.05448825167540282
Catherine_Schleimer-Kill,1884,,1,1,1,?,0.05448825167540282
Armand_Annet,1888,,1,1,1,?,0.05448825167540282
Cedric_Holland,1889,,1,1,1,?,0.05448825167540282
Ewart_Astill,1888,,1,1,1,?,0.05448825167540282
Fritz_Leiber_(Sr.),1882,,1,1,1,?,0.05448825167540282
George_McMillin,1889,,1,1,1,?,0.05448825167540282
George_Roby_Dempster,1887,,1,1,1,?,0.05448825167540282
Edwin_Balmer,1883,,1,1,1,?,0.05448825167540282
Ernest_Palmer_(American_cinematographer),1885,,1,1,1,?,0.05448825167540282
Zoë_Akins,1886,,1,1,1,?,0.05448825167540282
Giulio_Gavotti,1882,,1,1,1,?,0.05448825167540282
Reuvein_Margolies,1889,,1,1,1,?,0.05448825167540282
"Enea_Bossi,_Sr.",1888,,1,1,1,?,0.05448825167540282
Alfred_Francis_Blakeney_Carpenter,1881,,1,1,1,?,0.05448825167540282
Eduard_Künneke,1885,,1,1,1,?,0.05448825167540282
Dally_Messenger,1883,,1,1,1,?,0.05448825167540282
Sōjin_Kamiyama,1884,,1,1,1,?,0.05448825167540282
Rai_Rajeshwar_Bali,1889,,1,1,1,?,0.05448825167540282
Ernest_Tyldesley,1889,,1,1,1,?,0.05448825167540282
Arthur_L._Bristol,1886,,1,1,1,?,0.05448825167540282
Henry_F._Phillips,1889,,1,1,1,?,0.05448825167540282
Pieter_Voltelyn_Graham_van_der_Byl,1889,,1,1,1,?,0.05448825167540282
Maurice_Boyau,1888,,1,1,1,?,0.05448825167540282
James_Somerville,1882,,1,1,1,?,0.05448825167540282
F._Burrall_Hoffman,1882,,1,1,1,?,0.05448825167540282
Edgar_Stehli,1884,,1,1,1,?,0.05448825167540282
Tringe_Smajli,1880,,1,1,1,?,0.05448825167540282
Kanoko_Okamoto,1889,,1,1,1,?,0.05448825167540282
Jinichi_Kusaka,1888,,1,1,1,?,0.05448825167540282
Frank_Foster_(cricketer),1889,,1,1,1,?,0.05448825167540282
Ado_Birk,1883,,1,1,1,?,0.05448825167540282
Robert_C._Giffen,1886,,1,1,1,?,0.05448825167540282
Murray_Kinnell,1889,,1,1,1,?,0.05448825167540282
Helen_Hoyt,1887,,1,1,1,?,0.05448825167540282
Gleb_W._Derujinsky,1888,,1,1,1,?,0.05448825167540282
Godfrey_Chevalier,1889,,1,1,1,?,0.05448825167540282
Antoni_Łomnicki,1881,,1,1,1,?,0.05448825167540282
Zengo_Yoshida,1885,,1,1,1,?,0.05448825167540282
Allama_Mashriqi,1888,,1,1,1,?,0.05448825167540282
Jesse_Pennington,1883,,1,1,1,?,0.05448825167540282
Cliff_Sterrett,1883,,1,1,1,?,0.05448825167540282
John_H._Hoover,1887,,1,1,1,?,0.05448825167540282
Harry_Sunderland,1889,,1,1,1,?,0.05448825167540282
Hubert_Latham,1883,,1,1,1,?,0.05448825167540282
Chen_Xiefen,1883,,1,1,1,?,0.05448825167540282
Armand_J._Piron,1888,,1,1,1,?,0.05448825167540282
Arthur_Borton,1883,,1,1,1,?,0.05448825167540282
Suzanne_Bianchetti,1889,,1,1,1,?,0.05448825167540282
Charles_Christie,1880,,1,1,1,?,0.05448825167540282
Channing_Pollock_(writer),1880,,1,1,1,?,0.05448825167540282
Takeo_Itō,1889,,1,1,1,?,0.05448825167540282
Doris_Blackburn,1889,,1,1,1,?,0.05448825167540282
Thakur_Anukulchandra,1888,,1,1,1,?,0.05448825167540282
Gadicherla_Harisarvottama_Rao,1883,,1,1,1,?,0.05448825167540282
Edgar_Church,1888,,1,1,1,?,0.05448825167540282
Tom_Brown_(trombonist),1888,,1,1,1,?,0.05448825167540282
Robert_G._Fowler,1884,,1,1,1,?,0.05448825167540282
E._L._Grant_Watson,1885,,1,1,1,?,0.05448825167540282
Frank_Tarrant,1880,,1,1,1,?,0.05448825167540282
Edgar_Guest,1881,,1,1,1,?,0.05448825167540282
Jessie_Arms_Botke,1883,,1,1,1,?,0.05448825167540282
"Zdzisław_Żygulski,_Sr.",1888,,1,1,1,?,0.05448825167540282
Reşit_Süreyya_Gürsey,1889,,1,1,1,?,0.05448825167540282
Nathan_Post,1881,,1,1,1,?,0.05448825167540282
Charles_Armijo_Woodruff,1884,,1,1,1,?,0.05448825167540282
Nicholas_H._Heck,1882,,1,1,1,?,0.05448825167540282
Robert_James_Hudson,1885,,1,1,1,?,0.05448825167540282
Clara_Nordström,1886,,1,1,1,?,0.05448825167540282
Richard_C._Saufley,1884,,1,1,1,?,0.05448825167540282
Royal_H._Weller,1881,,1,1,1,?,0.05448825167540282
Elisabeth_Tamm,1880,,1,1,1,?,0.05448825167540282
Z._D._Mangoaela,1883,,1,1,1,?,0.05448825167540282
Raymond_Stanton_Patton,1882,,1,1,1,?,0.05448825167540282
Peter_Bocage,1887,,1,1,1,?,0.05448825167540282
Georges_Imbert,1884,,1,1,1,?,0.05448825167540282
Shiro_Kawase,1889,,1,1,1,?,0.05448825167540282
"Charles_M._Cooke,_Jr.",1886,,1,1,1,?,0.05448825167540282
George_H._Plympton,1889,,1,1,1,?,0.05448825167540282
Heisuke_Abe,1886,,1,1,1,?,0.05448825167540282
Leo_Otis_Colbert,1883,,1,1,1,?,0.05448825167540282
Stephen_Galatti,1888,,1,1,1,?,0.05448825167540282
Nicolette_Bruining,1886,,1,1,1,?,0.05448825167540282
Lucy_Tayiah_Eads,1888,,1,1,1,?,0.05448825167540282
Carroll_McComas,1886,,1,1,1,?,0.05448825167540282
M._Louise_Gross,1884,,1,1,1,?,0.05448825167540282
William_Douglas_Cook,1884,,1,1,1,?,0.05448825167540282
Andrej_Bicenko,1886,,1,1,1,?,0.05448825167540282
Wyncie_King,1884,,1,1,1,?,0.05448825167540282
Tutt_Brothers,1882,,1,1,1,?,0.05448825167540282
John_Morton-Finney,1889,,1,1,1,?,0.05448825167540282
Alessandro_Guidoni,1880,,1,1,1,?,0.05448825167540282
Frank_Burke_(baseball),1880,,1,1,1,?,0.05448825167540282
Arch_McCarthy,1881,,1,1,1,?,0.05448825167540282
Beatrice_Kerr,1887,,1,1,1,?,0.05448825167540282
Charles_Exeter_Devereux_Crombie,1880,,1,1,1,?,0.05448825167540282
István_Kühár,1887,,1,1,1,?,0.05448825167540282
Nikolai_Cholodny,1882,,1,1,1,?,0.05448825167540282
Louise_Marion_Bosworth,1881,,1,1,1,?,0.05448825167540282
John_Palm,1885,,1,1,1,?,0.05448825167540282
Andrew_Watson_Myles,1884,,1,1,1,?,0.05448825167540282
Ferenc_Talányi,1883,,1,1,1,?,0.05448825167540282
T._Sathasiva_Iyer,1882,,1,1,1,?,0.05448825167540282
Gengo_Hyakutake,1882,,1,1,1,?,0.05448825167540282
George_Barker_(painter),1882,,1,1,1,?,0.05448825167540282
Margaret_Henley,1888,,1,1,1,?,0.05448825167540282
Aketo_Nakamura,1889,,1,1,1,?,0.05448825167540282
Muriel_Hazel_Wright,1889,,1,1,1,?,0.05448825167540282
William_R._Munroe,1886,,1,1,1,?,0.05448825167540282
Michael_Considine,1885,,1,1,1,?,0.05448825167540282
Luisa_Casati,1881,,1,1,1,?,0.05448825167540282
Ferenc_Oslay,1883,,1,1,1,?,0.05448825167540282
Kristian_Hellström,1880,,1,1,1,?,0.05448825167540282
Marius_Canard,1888,,1,1,1,?,0.05448825167540282
John_H._Hester,1886,,1,1,1,?,0.05448825167540282
Rudolph_Palm,1880,,1,1,1,?,0.05448825167540282
Chaturbhuj_Sahay,1883,,1,1,1,?,0.05448825167540282
Avra_Theodoropoulou,1880,,1,1,1,?,0.05448825167540282
Ethel_May_Halls,1882,,1,1,1,?,0.05448825167540282
Ernest_Pingoud,1887,,1,1,1,?,0.05448825167540282
Claude_Roger-Marx,1888,,1,1,1,?,0.05448825167540282
Albert_Orsborn,1886,,1,1,1,?,0.05448825167540282
Raymond_DeWalt,1885,,1,1,1,?,0.05448825167540282
George_Shiels,1886,,1,1,1,?,0.05448825167540282
Marcel-Bruno_Gensoul,1880,,1,1,1,?,0.05448825167540282
John_van_Melle,1887,,1,1,1,?,0.05448825167540282
Kojo_Tovalou_Houénou,1887,,1,1,1,?,0.05448825167540282
Percy_C._Mather,1882,,1,1,1,?,0.05448825167540282
Ola_Solberg,1886,,1,1,1,?,0.05448825167540282
Wilhelm_Fritz_von_Roettig,1888,,1,1,1,?,0.05448825167540282
Naum_Torbov,1880,,1,1,1,?,0.05448825167540282
Liberato_Pinto,1880,,1,1,1,?,0.05448825167540282
Syedna_Taher_Saifuddin,1888,,1,1,1,?,0.05448825167540282
Otto_Dowling,1881,,1,1,1,?,0.05448825167540282
Dutch_Sterrett,1889,,1,1,1,?,0.05448825167540282
Hermann_Obrecht,1882,,1,1,1,?,0.05448825167540282
Giuseppe_Tellera,1882,,1,1,1,?,0.05448825167540282
Mike_Brady_(golfer),1887,,1,1,1,?,0.05448825167540282
Kirk_Bryan_(geologist),1888,,1,1,1,?,0.05448825167540282
Walther_Stampfli,1884,,1,1,1,?,0.05448825167540282
Nicholas_Charnetsky,1884,,1,1,1,?,0.05448825167540282
Robert_Moses,1888,,1,1,1,?,0.05448825167540282
Loyal_Blaine_Aldrich,1884,,1,1,1,?,0.05448825167540282
Rachel_Katznelson-Shazar,1885,,1,1,1,?,0.05448825167540282
William_T._Bovie,1882,,1,1,1,?,0.05448825167540282
Henry_Maitland_Wilson,1881,,1,1,1,?,0.05448825167540282
James_P._Boyle,1885,,1,1,1,?,0.05448825167540282
Violet_MacMillan,1887,,1,1,1,?,0.05448825167540282
Herbert_Strudwick,1880,,1,1,1,?,0.05448825167540282
Thomas_Selfridge,1882,,1,1,1,?,0.05448825167540282
Ioannis_Demestichas,1882,,1,1,1,?,0.05448825167540282
Siegmund_Glücksmann,1884,,1,1,1,?,0.05448825167540282
Pete_Wendling,1888,,1,1,1,?,0.05448825167540282
Lee_W._Stanley,1885,,1,1,1,?,0.05448825167540282
Jacobo_Palm,1887,,1,1,1,?,0.05448825167540282
Zerna_Sharp,1889,,1,1,1,?,0.05448825167540282
Campbell_Tait,1886,,1,1,1,?,0.05448825167540282
Harry_A._Marmer,1885,,1,1,1,?,0.05448825167540282
Paltiel_Daykan,1885,,1,1,1,?,0.05448825167540282
Vin_Coutie,1881,,1,1,1,?,0.05448825167540282
Alvin_Cullum_York,1887,,1,1,1,?,0.05448825167540282
René_Cresté,1881,,1,1,1,?,0.05448825167540282
Tenby_Davies,1884,,1,1,1,?,0.05448825167540282
Robert_L._Eichelberger,1886,,1,1,1,?,0.05448825167540282
George_Gaul,1885,,1,1,1,?,0.05448825167540282
Merrill_C._Meigs,1883,,1,1,1,?,0.05448825167540282
Charles_White_Whittlesey,1884,,1,1,1,?,0.05448825167540282
Friedrich_Lahrs,1880,,1,1,1,?,0.05448825167540282
Zeng_Junchen,1888,,1,1,1,?,0.05448825167540282
Tomoshige_Samejima,1889,,1,1,1,?,0.05448825167540282
William_A._Glassford,1886,,1,1,1,?,0.05448825167540282
Robert_McKeen,1884,,1,1,1,?,0.05448825167540282
Frank_Christian_(trumpeter),1887,,1,1,1,?,0.05448825167540282
James_Gleason,1882,,1,1,1,?,0.05448825167540282
Richard_S._Edwards,1885,,1,1,1,?,0.05448825167540282
Masao_Maruyama_(Japanese_Army_officer),1889,,1,1,1,?,0.05448825167540282
Edwin_Keppel_Bennett,1887,,1,1,1,?,0.05448825167540282
Jessie_Aspinall,1880,,1,1,1,?,0.05448825167540282
Benjamin_McCandlish,1886,,1,1,1,?,0.05448825167540282
Norman_Thomas,1884,,1,1,1,?,0.05448825167540282
Harry_Antrim,1884,,1,1,1,?,0.05448825167540282
Luo_Meizhen,1885,,1,1,1,?,0.05448825167540282
John_Painter_(supercentenarian),1888,,1,1,1,?,0.05448825167540282
Claud_Allister,1888,,1,1,1,?,0.05448825167540282
James_E._Casey,1888,,1,1,1,?,0.05448825167540282
Alison_Uttley,1884,,1,1,1,?,0.05448825167540282
John_Cunningham_(Royal_Navy_officer),1885,,1,1,1,?,0.05448825167540282
Ion_Agârbiceanu,1882,,1,1,1,?,0.05448825167540282
Francis_Browne,1880,,1,1,1,?,0.05448825167540282
Raoul_Lufbery,1885,,1,1,1,?,0.05448825167540282
Jonathan_Mayhew_Wainwright_IV,1883,,1,1,1,?,0.05448825167540282
John_Alexander_Douglas_McCurdy,1886,,1,1,1,?,0.05448825167540282
Harry_Hooper,1887,,1,1,1,?,0.05448825167540282
Watsuji_Tetsuro,1889,,1,1,1,?,0.05448825167540282
Jonas_H._Ingram,1886,,1,1,1,?,0.05448825167540282
Evadne_Price,1888,,1,1,1,?,0.05448825167540282
Yitzhak_HaLevi_Herzog,1888,,1,1,1,?,0.05448825167540282
Elsa_Brändström,1888,,1,1,1,?,0.05448825167540282
William_S._Pye,1880,,1,1,1,?,0.05448825167540282
Chester_Gillette,1883,,1,1,1,?,0.05448825167540282
Elsie_J._Oxenham,1880,,1,1,1,?,0.05448825167540282
Hong_Yi,1880,,1,1,1,?,0.05448825167540282
Alf_Common,1880,,1,1,1,?,0.05448825167540282
Herman_Bing,1889,,1,1,1,?,0.05448825167540282
Nicholas_Schenck,1881,,1,1,1,?,0.05448825167540282
Oren_E._Long,1889,,1,1,1,?,0.05448825167540282
Walter_Terence_Stace,1886,,1,1,1,?,0.05448825167540282
Garfield_Wood,1880,,1,1,1,?,0.05448825167540282
Sam_Rayburn,1882,,1,1,1,?,0.05448825167540282
Harold_Saxton_Burr,1889,,1,1,1,?,0.05448825167540282
Marie-Louise_Meilleur,1880,,1,1,1,?,0.05448825167540282
Conrad_Helfrich,1886,,1,1,1,?,0.05448825167540282
Lilias_Armstrong,1882,,1,1,1,?,0.05448825167540282
Kathleen_Howard,1884,,1,1,1,?,0.05448825167540282
"Bob_Jones,_Sr.",1883,,1,1,1,?,0.05448825167540282
Florence_Easton,1882,,1,1,1,?,0.05448825167540282
Julian_C._Smith,1885,,1,1,1,?,0.05448825167540282
Pier_Ruggero_Piccio,1880,,1,1,1,?,0.05448825167540282
C._K._Scott-Moncrieff,1889,,1,1,1,?,0.05448825167540282
Nikolai_Astrup,1880,,1,1,1,?,0.05448825167540282
Refik_Saydam,1881,,1,1,1,?,0.05448825167540282
"Terry_de_la_Mesa_Allen,_Sr.",1888,,1,1,1,?,0.05448825167540282
Sam_Langford,1883,,1,1,1,?,0.05448825167540282
Alan_Goodrich_Kirk,1888,,1,1,1,?,0.05448825167540282
Catherine_Bramwell-Booth,1883,,1,1,1,?,0.05448825167540282
Mary_Webb,1881,,1,1,1,?,0.05448825167540282
John_Cyril_Porte,1884,,1,1,1,?,0.05448825167540282
Aubrey_Fitch,1883,,1,1,1,?,0.05448825167540282
Alfred_A._Cunningham,1882,,1,1,1,?,0.05448825167540282
Isaac_C._Kidd,1884,,1,1,1,?,0.05448825167540282
Burt_Mustin,1884,,1,1,1,?,0.05448825167540282
DeWitt_Wallace,1889,,1,1,1,?,0.05448825167540282
Walter_Baldwin,1889,,1,1,1,?,0.05448825167540282
Jack_Hobbs,1882,,1,1,1,?,0.05448825167540282
Eddie_Collins_(actor),1883,,1,1,1,?,0.05448825167540282
Tony_Jannus,1889,,1,1,1,?,0.05448825167540282
Homer_S._Ferguson,1889,,1,1,1,?,0.05448825167540282
Marie_Brémont,1886,,1,1,1,?,0.05448825167540282
Andrew_Higgins,1886,,1,1,1,?,0.05448825167540282
Isabel_Randolph,1889,,1,1,1,?,0.05448825167540282
Mary_MacLane,1881,,1,1,1,?,0.05448825167540282
Grace_Brown,1886,,1,1,1,?,0.05448825167540282
Waite_Phillips,1883,,1,1,1,?,0.05448825167540282
Felicjan_Sławoj_Składkowski,1885,,1,1,1,?,0.05448825167540282
Henry_Fillmore,1881,,1,1,1,?,0.05448825167540282
Margaret_Wycherly,1881,,1,1,1,?,0.05448825167540282
Karl_Valentin,1882,,1,1,1,?,0.05448825167540282
Dick_Elliott,1886,,1,1,1,?,0.05448825167540282
Edgar_J._Kaufmann,1885,,1,1,1,?,0.05448825167540282
Alf_Landon,1887,,1,1,1,?,0.05448825167540282
Sophie_Treadwell,1885,,1,1,1,?,0.05448825167540282
Eugen_Leviné,1883,,1,1,1,?,0.05448825167540282
Abe_Attell,1883,,1,1,1,?,0.05448825167540282
George_Jean_Nathan,1882,,1,1,1,?,0.05448825167540282
Oliver_Wallace,1887,,1,1,1,?,0.05448825167540282
Günther_Quandt,1881,,1,1,1,?,0.05448825167540282
"Arthur_Schlesinger,_Sr.",1888,,1,1,1,?,0.05448825167540282
Hiram_Wesley_Evans,1881,,1,1,1,?,0.05448825167540282
"John_S._McCain,_Sr.",1884,,1,1,1,?,0.05448825167540282
Vincent_Massey,1887,,1,1,1,?,0.05448825167540282
Antoinette_Perry,1888,,1,1,1,?,0.05448825167540282
Felix_Ysagun_Manalo,1886,,1,1,1,?,0.05448825167540282
Syed_Sulaiman_Nadvi,1884,,1,1,1,?,0.05448825167540282
Nevile_Henderson,1882,,1,1,1,?,0.05448825167540282
Bror_von_Blixen-Finecke,1886,,1,1,1,?,0.05448825167540282
Harry_H._Laughlin,1880,,1,1,1,?,0.05448825167540282
Ben_Chifley,1885,,1,1,1,?,0.05448825167540282
Mirza_Basheer-ud-Din_Mahmood_Ahmad,1889,,1,1,1,?,0.05448825167540282
William_L._Laurence,1888,,1,1,1,?,0.05448825167540282
Squizzy_Taylor,1888,,1,1,1,?,0.05448825167540282
Eva_Morris,1885,,1,1,1,?,0.05448825167540282
Aleksandr_Vertinsky,1889,,1,1,1,?,0.05448825167540282
Eric_Coates,1886,,1,1,1,?,0.05448825167540282
Will_Cuppy,1884,,1,1,1,?,0.05448825167540282
Charles_Nordhoff,1887,,1,1,1,?,0.05448825167540282
Maude_Farris-Luse,1887,,1,1,1,?,0.05448825167540282
Paul_Bernays,1888,,1,1,1,?,0.05448825167540282
Frederick_Handley_Page,1885,,1,1,1,?,0.05448825167540282
Lesley_J._McNair,1883,,1,1,1,?,0.05448825167540282
Walter_Knott,1889,,1,1,1,?,0.05448825167540282
Yusif_Vazir_Chamanzaminli,1887,,1,1,1,?,0.05448825167540282
Lincoln_Beachey,1887,,1,1,1,?,0.05448825167540282
Douglass_Dumbrille,1889,,1,1,1,?,0.05448825167540282
Robert_Hichens_(sailor),1882,,1,1,1,?,0.05448825167540282
Peter_Stoner,1888,,1,1,1,?,0.05448825167540282
Henry_Kent_Hewitt,1887,,1,1,1,?,0.05448825167540282
Rupert_Downes,1885,,1,1,1,?,0.05448825167540282
Kermit_Roosevelt,1889,,1,1,1,?,0.05448825167540282
Hugo_Bergmann,1883,,1,1,1,?,0.05448825167540282
Josef_Frings,1887,,1,1,1,?,0.05448825167540282
Frigyes_Riesz,1880,,1,1,1,?,0.05448825167540282
Mitsuru_Ushijima,1887,,1,1,1,?,0.05448825167540282
Anton_Flettner,1885,,1,1,1,?,0.05448825167540282
Hasui_Kawase,1883,,1,1,1,?,0.05448825167540282
John_L._Lewis,1880,,1,1,1,?,0.05448825167540282
Martha_Wentworth,1889,,1,1,1,?,0.05448825167540282
Willis_Augustus_Lee,1888,,1,1,1,?,0.05448825167540282
Otto_Plath,1885,,1,1,1,?,0.05448825167540282
Julius_Freed,1887,,1,1,1,?,0.05448825167540282
Alfred_Carlton_Gilbert,1884,,1,1,1,?,0.05448825167540282
Josiah_Stamp,1880,,1,1,1,?,0.05448825167540282
Sam_McDaniel,1886,,1,1,1,?,0.05448825167540282
Thomas_C._Kinkaid,1888,,1,1,1,?,0.05448825167540282
Syed_Zafarul_Hasan,1885,,1,1,1,?,0.05448825167540282
Ralph_Hartley,1888,,1,1,1,?,0.05448825167540282
Harold_Geiger,1884,,1,1,1,?,0.05448825167540282
Ion_Inculeț,1884,,1,1,1,?,0.05448825167540282
Royal_E._Ingersoll,1883,,1,1,1,?,0.05448825167540282
John_Murray_Anderson,1886,,1,1,1,?,0.05448825167540282
Harry_Ferguson,1884,,1,1,1,?,0.05448825167540282
"Bruce_Fraser,_1st_Baron_Fraser_of_North_Cape",1888,,1,1,1,?,0.05448825167540282
Monte_Attell,1885,,1,1,1,?,0.05448825167540282
Adelina_Domingues,1888,,1,1,1,?,0.05448825167540282
Margaret_Ayer_Barnes,1886,,1,1,1,?,0.05448825167540282
Harold_Hitz_Burton,1888,,1,1,1,?,0.05448825167540282
Martin_and_Osa_Johnson,1884,,1,1,1,?,0.05448825167540282
Julia_Sanderson,1887,,1,1,1,?,0.05448825167540282
Ulysses_S._Grant_III,1881,,1,1,1,?,0.05448825167540282
Max_Ritter_von_Müller,1887,,1,1,1,?,0.05448825167540282
Henry_Norwest,1884,,1,1,1,?,0.05448825167540282
Arthur_E._Andersen,1885,,1,1,1,?,0.05448825167540282
Richmond_K._Turner,1885,,1,1,1,?,0.05448825167540282
Alexander_Patch,1889,,1,1,1,?,0.05448825167540282
Robert_Alfred_Theobald,1884,,1,1,1,?,0.05448825167540282
Edward_Sheldon,1886,,1,1,1,?,0.05448825167540282
Walton_Walker,1889,,1,1,1,?,0.05448825167540282
Ola_Raknes,1887,,1,1,1,?,0.05448825167540282
José_Abad_Santos,1886,,1,1,1,?,0.05448825167540282
Husain_Salaahuddin,1881,,1,1,1,?,0.05448825167540282
Michael_Fekete,1886,,1,1,1,?,0.05448825167540282
Lester_Cuneo,1888,,1,1,1,?,0.05448825167540282
Inez_Milholland,1886,,1,1,1,?,0.05448825167540282
Forrest_Taylor,1883,,1,1,1,?,0.05448825167540282
Elmer_Fowler_Stone,1887,,1,1,1,?,0.05448825167540282
Joseph_Egger,1889,,1,1,1,?,0.05448825167540282
Jean_Alexandre_Barré,1880,,1,1,1,?,0.05448825167540282
John_R._Sinnock,1888,,1,1,1,?,0.05448825167540282
Henri_Fabre,1882,,1,1,1,?,0.05448825167540282
Bernard_Rawlings_(Royal_Navy_officer),1889,,1,1,1,?,0.05448825167540282
T._F._O'Rahilly,1883,,1,1,1,?,0.05448825167540282
Nishizō_Tsukahara,1887,,1,1,1,?,0.05448825167540282
Walden_L._Ainsworth,1886,,1,1,1,?,0.05448825167540282
Edward_Hanson,1889,,1,1,1,?,0.05448825167540282
Vean_Gregg,1885,,1,1,1,?,0.05448825167540282
Richard_Cramer,1889,,1,1,1,?,0.05448825167540282
Robert_L._Thornton,1880,,1,1,1,?,0.05448825167540282
Frederick_Hawksworth,1884,,1,1,1,?,0.05448825167540282
"John_Rodgers_(naval_officer,_World_War_I)",1881,,1,1,1,?,0.05448825167540282
Frederick_J._Horne,1880,,1,1,1,?,0.05448825167540282
Kaarel_Eenpalu,1888,,1,1,1,?,0.05448825167540282
Gustav_Herglotz,1881,,1,1,1,?,0.05448825167540282
Essington_Lewis,1881,,1,1,1,?,0.05448825167540282
Aubrey_Faulkner,1881,,1,1,1,?,0.05448825167540282
Dorothy_Campbell,1883,,1,1,1,?,0.05448825167540282
Olaf_M._Hustvedt,1886,,1,1,1,?,0.05448825167540282
Charles_Reidpath,1889,,1,1,1,?,0.05448825167540282
"George_Monckton-Arundell,_8th_Viscount_Galway",1882,,1,1,1,?,0.05448825167540282
Ants_Piip,1884,,1,1,1,?,0.05448825167540282
Marie_Vassilieff,1884,,1,1,1,?,0.05448825167540282
David_Powell_(actor),1883,,1,1,1,?,0.05448825167540282
Carlo_Bergamini_(admiral),1888,,1,1,1,?,0.05448825167540282
Carl_Vinson,1883,,1,1,1,?,0.05448825167540282
Eleonore_Baur,1885,,1,1,1,?,0.05448825167540282
Madame_de_Meuron,1882,,1,1,1,?,0.05448825167540282
Huntley_Gordon,1887,,1,1,1,?,0.05448825167540282
William_Barnard_Rhodes-Moorhouse,1887,,1,1,1,?,0.05448825167540282
Grover_Whalen,1886,,1,1,1,?,0.05448825167540282
Theodore_Stark_Wilkinson,1888,,1,1,1,?,0.05448825167540282
Grantland_Rice,1880,,1,1,1,?,0.05448825167540282
Ida_Rentoul_Outhwaite,1888,,1,1,1,?,0.05448825167540282
Leonard_Mudie,1883,,1,1,1,?,0.05448825167540282
Bess_Streeter_Aldrich,1881,,1,1,1,?,0.05448825167540282
Al_Christie,1881,,1,1,1,?,0.05448825167540282
Lotte_Herrlich,1883,,1,1,1,?,0.05448825167540282
Oscar_Griswold,1886,,1,1,1,?,0.05448825167540282
Duffy_Lewis,1888,,1,1,1,?,0.05448825167540282
E._J._Pratt,1882,,1,1,1,?,0.05448825167540282
Venkatarama_Ramalingam_Pillai,1888,,1,1,1,?,0.05448825167540282
Kosaku_Yamada,1886,,1,1,1,?,0.05448825167540282
"Walter_Citrine,_1st_Baron_Citrine",1887,,1,1,1,?,0.05448825167540282
J._Frank_Dobie,1888,,1,1,1,?,0.05448825167540282
Rose_Wilder_Lane,1886,,1,1,1,?,0.05448825167540282
Sigmund_Romberg,1887,,1,1,1,?,0.05448825167540282
John_Lavarack,1885,,1,1,1,?,0.05448825167540282
Yehezkel_Abramsky,1886,,1,1,1,?,0.05448825167540282
Florence_Reed,1883,,1,1,1,?,0.05448825167540282
Bidhan_Chandra_Roy,1882,,1,1,1,?,0.05448825167540282
Thomas_Sigismund_Stribling,1881,,1,1,1,?,0.05448825167540282
Percy_Marmont,1883,,1,1,1,?,0.05448825167540282
Eduard_Ritter_von_Schleich,1888,,1,1,1,?,0.05448825167540282
Cyclone_Taylor,1884,,1,1,1,?,0.05448825167540282
Giuseppe_Mario_Bellanca,1886,,1,1,1,?,0.05448825167540282
Florence_La_Badie,1888,,1,1,1,?,0.05448825167540282
Elizabeth_Craig_(writer),1883,,1,1,1,?,0.05448825167540282
Morton_Deyo,1887,,1,1,1,?,0.05448825167540282
Olga_Petrova,1884,,1,1,1,?,0.05448825167540282
Troy_H._Middleton,1889,,1,1,1,?,0.05448825167540282
Dorothy_Payne_Whitney,1887,,1,1,1,?,0.05448825167540282
Charles_Alan_Pownall,1887,,1,1,1,?,0.05448825167540282
Harry_Ricardo,1885,,1,1,1,?,0.05448825167540282
Kenneth_Whiting,1881,,1,1,1,?,0.05448825167540282
Robert_Henry_English,1888,,1,1,1,?,0.05448825167540282
Jean_Decoux,1884,,1,1,1,?,0.05448825167540282
Julius_Fromm,1883,,1,1,1,?,0.05448825167540282
John_Flynn_(minister),1880,,1,1,1,?,0.05448825167540282
Subramania_Bharati,1882,,1,1,1,?,0.05448825167540282
Bee_Ho_Gray,1885,,1,1,1,?,0.05448825167540282
Ben-Zion_Dinur,1884,,1,1,1,?,0.05448825167540282
Jeanne_de_Salzmann,1889,,1,1,1,?,0.05448825167540282
Neville_Cardus,1888,,1,1,1,?,0.05448825167540282
William_Edmunds_(actor),1886,,1,1,1,?,0.05448825167540282
Earle_Page,1880,,1,1,1,?,0.05448825167540282
Martin_O'Meara,1882,,1,1,1,?,0.05448825167540282
Stanley_Forman_Reed,1884,,1,1,1,?,0.05448825167540282
Albert_Plesman,1889,,1,1,1,?,0.05448825167540282
Sheila_Kaye-Smith,1887,,1,1,1,?,0.05448825167540282
Albert_Hill_(athlete),1889,,1,1,1,?,0.05448825167540282
George_A._Malcolm,1881,,1,1,1,?,0.05448825167540282
Wyndham_Standing,1880,,1,1,1,?,0.05448825167540282
"John_W._Wilcox,_Jr.",1882,,1,1,1,?,0.05448825167540282
George_S._Rentz,1882,,1,1,1,?,0.05448825167540282
Tich_Freeman,1888,,1,1,1,?,0.05448825167540282
Maurice_Nicoll,1884,,1,1,1,?,0.05448825167540282
Phil_Mead,1887,,1,1,1,?,0.05448825167540282
Luiza_Zavloschi,1883,,1,1,1,?,0.05448825167540282
