link,year,disambiguation,length,pageviews,revisions,title,score
Adolf_Hitler,1889,False,480244,182743,3395,"Гитлер, Адольф",0.8638252566965702
Anna_Akhmatova,1889,False,418622,75664,2004,"Ахматова, Анна Андреевна",0.8195996460211984
Benito_Mussolini,1883,False,592462,42895,1697,"Муссолини, Бенито",0.8049725864561325
Charlie_Chaplin,1889,False,476195,45343,1244,"Чаплин, Чарльз",0.7900251379809053
Semyon_Budyonny,1883,False,487030,29444,1329,"Будённый, Семён Михайлович",0.7819659672431644
Alexander_Kerensky,1881,False,559216,28272,1166,"Керенский, Александр Фёдорович",0.7778963696562035
Pablo_Picasso,1881,False,308909,48164,1028,"Пикассо, Пабло",0.775904646703001
Mustafa_Kemal_Atatürk,1881,False,364107,23713,1431,"Ататюрк, Мустафа Кемаль",0.7740594424139569
Kliment_Voroshilov,1881,False,484327,27620,1030,"Ворошилов, Климент Ефремович",0.7698091332461952
Sergey_Kirov,1886,False,218154,20609,1306,"Киров, Сергей Миронович",0.7577531482107959
Franklin_D._Roosevelt,1882,False,276586,36469,683,"Рузвельт, Франклин",0.7496659696782502
Aleksei_Nikolaevich_Tolstoi,1883,False,255183,32117,744,"Толстой, Алексей Николаевич",0.7490345112952796
Franz_Kafka,1883,False,224633,37999,630,"Кафка, Франц",0.7434458885361215
Marc_Chagall,1887,False,239733,18541,861,"Шагал, Марк Захарович",0.7403309097943415
Vasily_Blyukher,1889,False,412872,16715,740,"Блюхер, Василий Константинович",0.740134706148744
Velimir_Khlebnikov,1885,False,450110,11223,923,"Хлебников, Велимир",0.739444881021549
Igor_Stravinsky,1882,False,292373,16153,736,"Стравинский, Игорь Фёдорович",0.7335419939137847
Igor_Sikorsky,1889,False,185158,15193,915,"Сикорский, Игорь Иванович",0.7330660515194608
David_Ben-Gurion,1886,False,629704,8251,810,"Бен-Гурион, Давид",0.7300893313128304
Coco_Chanel,1883,False,148009,31786,591,"Шанель, Коко",0.7292171321934464
Aleksandr_Vertinsky,1889,False,248458,17488,663,"Вертинский, Александр Николаевич",0.728575521076621
Nikolai_Ivanovich_Bukharin,1888,False,326933,12775,708,"Бухарин, Николай Иванович",0.7274053371602985
Martin_Heidegger,1889,False,288401,14306,637,"Хайдеггер, Мартин",0.7240447374038456
Harry_S._Truman,1884,False,252915,19637,547,"Трумэн, Гарри",0.7234218446654833
Le_Corbusier,1887,False,262560,9081,856,Ле Корбюзье,0.7219755130960451
Heinz_Guderian,1888,False,215719,14383,592,"Гудериан, Гейнц Вильгельм",0.7164479162992912
Niels_Bohr,1885,False,399625,9204,481,"Бор, Нильс",0.7049055099546487
Erwin_Schrödinger,1887,False,467007,11063,383,"Шрёдингер, Эрвин",0.701650830613704
John_Maynard_Keynes,1883,False,263459,8487,451,"Кейнс, Джон Мейнард",0.6938757684564921
Anna_Pavlova,1881,False,275379,9684,406,"Павлова, Анна Павловна",0.6933915629375738
Dale_Carnegie,1888,False,91334,26146,342,"Карнеги, Дейл",0.69142925319553
José_Raúl_Capablanca,1888,False,482381,4809,498,"Капабланка, Хосе Рауль",0.6901698331940122
Jaroslav_Hašek,1883,False,312938,6597,455,"Гашек, Ярослав",0.689750155325424
Erich_von_Manstein,1887,False,215413,11447,369,"Манштейн, Эрих фон",0.6897213918730266
Chiang_Kai-shek,1887,False,218840,12757,340,Чан Кайши,0.6888301133250951
Stefan_Zweig,1881,False,199963,12104,351,"Цвейг, Стефан",0.6876811323922973
Felix_Yusupov,1887,False,118122,13848,367,"Юсупов, Феликс Феликсович",0.6847417323794314
Boris_Shaposhnikov,1882,False,269131,9533,336,"Шапошников, Борис Михайлович",0.6839829988368747
Alexander_Fleming,1881,False,195899,12154,324,"Флеминг, Александр",0.6837247011393327
James_Joyce,1882,False,204307,9433,356,"Джойс, Джеймс",0.6823900222425875
Georgi_Dimitrov,1882,False,215524,4113,583,"Димитров, Георгий Михайлович",0.6805329316264244
Ludwig_Wittgenstein,1889,False,170866,7607,397,"Витгенштейн, Людвиг",0.6789621294889866
Virginia_Woolf,1882,False,175800,9898,326,"Вулф, Вирджиния",0.6773367987347837
George_Patton,1885,False,248220,5146,425,"Паттон, Джордж Смит",0.6764876176996911
René_Guénon,1886,False,198204,3008,682,"Генон, Рене",0.6752355376336475
António_de_Oliveira_Salazar,1889,False,414949,4501,382,"Салазар, Антониу ди",0.6749227267963697
Helen_Keller,1880,False,350843,5982,326,"Келлер, Хелен Адамс",0.673802830499634
Isoroku_Yamamoto,1884,False,280282,4313,428,"Ямамото, Исороку",0.6732872957822041
Wilhelm_Canaris,1887,False,145190,6702,393,"Канарис, Вильгельм Франц",0.6726799927165449
T._E._Lawrence,1888,False,172780,8777,302,"Лоуренс, Томас Эдвард",0.6705235444770296
Wilhelm_Keitel,1882,False,176553,9813,281,"Кейтель, Вильгельм",0.6702105133659698
Amedeo_Modigliani,1884,False,178054,8721,284,"Модильяни, Амедео",0.6679211620788671
Jawaharlal_Nehru,1889,False,202946,7054,284,"Неру, Джавахарлал",0.6643923139453075
Joseph_Alois_Schumpeter,1883,False,261786,4644,329,"Шумпетер, Йозеф",0.6632247442967945
Jean_Cocteau,1889,False,175972,8401,261,"Кокто, Жан",0.6628076272995931
Oswald_Spengler,1880,False,165110,7099,289,"Шпенглер, Освальд",0.6624345227453272
Ernst_Thälmann,1886,False,107520,5043,409,"Тельман, Эрнст",0.6619806784121056
Douglas_MacArthur,1880,False,225411,4610,333,"Макартур, Дуглас",0.6615245006449006
Morihei_Ueshiba,1883,False,146656,5753,326,"Уэсиба, Морихэй",0.6606225613711263
Arnold_J._Toynbee,1889,False,155318,5719,302,"Тойнби, Арнольд Джозеф",0.6579006482520919
Fedor_von_Bock,1880,False,164272,6023,270,"Бок, Федор фон",0.6549671290636422
Paul_Ludwig_Ewald_von_Kleist,1881,False,214266,3924,323,"Клейст, Эвальд фон",0.6549026780209268
Karl_I_of_Austria,1887,False,176114,4590,306,Карл I (император Австрии),0.6542853408217754
T._S._Eliot,1888,False,149555,4850,259,"Элиот, Томас Стернз",0.6460275885393276
Vidkun_Quisling,1887,False,236408,2772,313,"Квислинг, Видкун",0.6445494308746876
A._A._Milne,1882,False,132320,6954,213,"Милн, Алан Александр",0.6442859333096497
Emmy_Noether,1882,False,450593,1663,362,"Нётер, Эмми",0.6418441219617682
Karl_Jaspers,1883,False,129547,4139,263,"Ясперс, Карл",0.6404372547987307
Bernard_Montgomery,1887,False,184887,4963,207,"Монтгомери, Бернард Лоу",0.6389676629053046
Guillaume_Apollinaire,1880,False,187607,3337,259,Гийом Аполлинер,0.6387722341873516
John_Reed_(journalist),1887,False,175557,3769,242,"Рид, Джон",0.6382553599754458
Hugo_Schmeisser,1884,False,80877,4506,277,"Шмайссер, Хуго",0.6381415130209637
Pope_John_XXIII,1881,False,260456,2601,270,Иоанн XXIII,0.6374682343208209
Volodymyr_Vynnychenko,1880,False,195476,3722,230,"Винниченко, Владимир Кириллович",0.6369779461083416
P._G._Wodehouse,1881,False,157919,3809,240,"Вудхаус, Пелам Гренвилл",0.6367567044532764
Erle_Stanley_Gardner,1889,False,150346,3070,277,"Гарднер, Эрл Стэнли",0.6363781287797808
Ernst_Röhm,1887,False,168522,2934,275,"Рём, Эрнст",0.6362735638684789
Béla_Bartók,1881,False,138735,3592,252,"Барток, Бела",0.6355832977014672
Max_Linder,1883,False,253466,2257,277,Макс Линдер,0.6338937754404744
Ante_Pavelić,1889,False,187058,2661,269,"Павелич, Анте",0.6338028954363232
Günther_von_Kluge,1882,False,206066,4508,190,"Клюге, Ханс Гюнтер фон",0.6336803281274879
Edvard_Beneš,1884,False,211125,2060,286,"Бенеш, Эдвард",0.6301291972927645
Fernando_Pessoa,1888,False,254416,1326,388,"Пессоа, Фернандо",0.6298722500079019
Diego_Rivera,1886,False,126721,6320,169,"Ривера, Диего",0.6298534310343626
Alfonso_XIII_of_Spain,1886,False,193358,2677,237,Альфонсо XIII,0.6288334975839961
Srinivasa_Aaiyangar_Ramanujan,1887,False,150195,3510,215,Сриниваса Рамануджан Айенгор,0.6287991828227072
Eleanor_Roosevelt,1884,False,128108,5712,164,"Рузвельт, Элеонора",0.626046429842943
Chester_W._Nimitz,1885,False,219979,1949,255,"Нимиц, Честер Уильям",0.6240426999965512
Hermann_Hoth,1885,False,190517,4093,166,"Гот, Герман",0.6234677095287752
Ludwig_von_Mises,1881,False,163717,2307,242,"Мизес, Людвиг фон",0.6232455757670432
Benjamin_(Fedchenkov),1880,False,330916,919,425,Вениамин (Федченков),0.6228047523575904
José_Ortega_y_Gasset,1883,False,101099,4384,175,"Ортега-и-Гассет, Хосе",0.6195456076047509
Edward_Rydz-Śmigły,1886,False,180567,2019,236,"Рыдз-Смиглы, Эдвард",0.6193660096230799
Ludwig_Mies_van_der_Rohe,1886,False,150998,2562,206,"Мис ван дер Роэ, Людвиг",0.618112568999383
Marcel_Duchamp,1887,False,111400,3305,185,"Дюшан, Марсель",0.6162030159340602
Ezra_Pound,1885,False,122663,2148,226,"Паунд, Эзра",0.6144287939555697
Max_Born,1882,False,387742,2039,170,"Борн, Макс",0.613507477018646
Bela_Lugosi,1882,False,151950,2963,160,"Лугоши, Бела",0.6103173651332262
Albert_Kesselring,1885,False,229448,3253,136,"Кессельринг, Альберт",0.6095412014653451
Irving_Berlin,1888,False,106357,1449,280,Ирвинг Берлин,0.609273663116255
Gustaf_VI_Adolf_of_Sweden,1882,False,260868,2825,141,Густав VI Адольф,0.6091163864966996
Raymond_Chandler,1888,False,151582,2306,179,"Чандлер, Рэймонд",0.6087035898659797
F._W._Murnau,1888,False,159822,1302,264,"Мурнау, Фридрих Вильгельм",0.6085919775187357
Paul_Hausser,1880,False,180260,2664,156,"Хауссер, Пауль",0.6082774154794798
Alexander_I_of_Yugoslavia,1888,False,200962,2797,141,Александр I Карагеоргиевич,0.6058510616553119
Clement_Attlee,1883,False,173853,1939,173,"Эттли, Клемент",0.6037754782153699
D._H._Lawrence,1885,False,123592,2358,165,"Лоренс, Дейвид Герберт",0.6029814366185803
Eugene_O'Neill,1888,False,150926,2591,148,"О’Нил, Юджин",0.6027994400590349
Tojo_Hideki,1884,False,136507,1835,185,"Тодзио, Хидэки",0.6022906842439464
George_Marshall,1880,False,232082,2330,140,"Маршалл, Джордж",0.6021555025743718
Władysław_Sikorski,1881,False,182541,1901,165,"Сикорский, Владислав",0.6015645212913737
Boris_Karloff,1887,False,100423,3227,141,Борис Карлофф,0.6010760369174891
George_Mallory,1886,False,106872,2281,163,"Мэллори, Джордж",0.5996534112043878
Pierre_Laval,1883,False,198734,1522,175,"Лаваль, Пьер",0.5985935528536662
Louis_B._Mayer,1885,False,154462,1934,157,"Майер, Луис Барт",0.5977596486411667
Ion_Antonescu,1882,False,206956,681,330,"Антонеску, Йон",0.5969139657990233
Oskar_Kokoschka,1886,False,126500,2308,145,"Кокошка, Оскар",0.5965053191770965
Jozef_Tiso,1887,False,113758,2015,161,"Тисо, Йозеф",0.5963916809302302
İsmet_İnönü,1884,False,150146,1661,163,"Инёню, Исмет",0.5947319890813153
Umberto_Nobile,1885,False,99153,1729,177,"Нобиле, Умберто",0.5945719368340306
August_Macke,1887,False,185728,811,262,"Маке, Август",0.5936667231493116
Kahlil_Gibran,1883,False,109974,2670,130,Джебран Халиль Джебран,0.5932843559095478
Shmuel_Yosef_Agnon,1888,False,157710,1138,203,"Агнон, Шмуэль Йосеф",0.5931908196497987
Wilhelmina_of_the_Netherlands,1880,False,110218,2116,146,Вильгельмина,0.5927579887245211
Walther_von_Brauchitsch,1881,False,129675,2765,121,"Браухич, Вальтер фон",0.5925519991005883
Sinclair_Lewis,1885,False,134451,1876,140,"Льюис, Синклер",0.589790990875818
Georges_Braque,1882,False,87657,1818,157,"Брак, Жорж",0.5890400136156758
Crown_Prince_Wilhelm_of_Germany,1882,False,123411,1682,149,Вильгельм (кронпринц Прусский),0.5886077899675203
Georg_von_Küchler,1881,False,147333,2162,123,"Кюхлер, Георг фон",0.5884030372184966
Anton_Webern,1883,False,113052,1143,198,"Веберн, Антон",0.5883326193065531
Roland_Garros_(aviator),1888,False,108980,1134,201,"Гаррос, Ролан",0.588258706401073
Alfred_Wegener,1880,False,153018,1024,196,"Вегенер, Альфред Лотар",0.5878929900520723
Franz_Halder,1884,False,121853,2762,112,"Гальдер, Франц",0.5877637091851003
Alban_Berg,1885,False,101934,1397,173,"Берг, Альбан",0.5875535398682146
Ernst_Busch_(field_marshal),1885,False,131527,2240,117,"Буш, Эрнст (генерал-фельдмаршал)",0.5854932947457828
Walter_Gropius,1883,False,117500,1863,132,"Гропиус, Вальтер",0.5851561842601614
Werner_von_Fritsch,1880,False,124626,1345,158,"Фрич, Вернер фон",0.5847904990448017
Ernst_Hanfstaengl,1887,False,171488,1645,128,"Ганфштенгль, Эрнст",0.5844980917596011
Bronisław_Malinowski,1884,False,109971,1316,159,"Малиновский, Бронислав Каспар",0.582927811056768
Lead_Belly,1888,False,126925,970,190,Ледбелли,0.5826384684757685
Princess_Alice_of_Battenberg,1885,False,179527,2227,103,Алиса Баттенберг,0.5822208573814607
Violet_Jessop,1887,False,68802,2071,133,"Джессоп, Вайолетт Констанс",0.5817636614291863
Douglas_Fairbanks,1883,False,111743,2065,117,"Фэрбенкс, Дуглас",0.5814077155831636
Risto_Ryti,1889,False,134107,1048,170,"Рюти, Ристо",0.5810794026952893
Getúlio_Vargas,1882,False,164204,1111,153,"Варгас, Жетулиу",0.580578561150262
François_Mauriac,1885,False,134158,1473,133,"Мориак, Франсуа",0.5803794501261801
Kurt_von_Schleicher,1882,False,147415,1631,122,"Шлейхер, Курт фон",0.5802013432188854
Joseph_Trumpeldor,1880,False,107841,1060,173,"Трумпельдор, Иосиф",0.579651601677538
Peter_Debye,1884,False,472692,668,170,"Дебай, Петер",0.5786797871152318
Paul_Ehrenfest,1880,False,464466,748,153,"Эренфест, Пауль",0.577960199533442
Erich_von_Stroheim,1885,False,155429,654,223,"Штрогейм, Эрих фон",0.577649220179033
Bess_Truman,1885,False,132133,684,222,"Трумэн, Бесс",0.5772824833044359
"Joseph_P._Kennedy,_Sr.",1888,False,92335,3682,85,"Кеннеди, Джозеф",0.5762843349523196
Theodor_Heuss,1884,False,129391,1404,125,"Хойс, Теодор",0.5756083901555892
Johannes_Blaskowitz,1883,False,195255,1226,123,"Бласковиц, Йоханнес",0.5753254568588843
Johnny_Torrio,1882,False,94073,2405,100,"Торрио, Джон",0.5752260465307183
John_Barrymore,1882,False,129367,1840,104,"Берримор, Джон",0.5740119136834705
Vincent_Auriol,1884,False,154310,1224,125,"Ориоль, Венсан",0.5735202710560543
Chūichi_Nagumo,1887,False,75394,1063,162,"Нагумо, Тюити",0.5726059937260087
Faisal_I_of_Iraq,1885,False,97214,1451,123,Фейсал I,0.5724794144651335
Patriarch_Athenagoras_I_of_Constantinople,1886,False,221757,526,216,Афинагор (патриарх Константинопольский),0.5720485770001799
Henry_A._Wallace,1888,False,175741,1236,117,"Уоллес, Генри Эгард",0.5720277728495196
Ludwig_Beck,1880,False,190395,2222,84,"Бек, Людвиг",0.5716378842406169
Nikos_Kazantzakis,1883,False,129921,1309,117,"Казандзакис, Никос",0.570429372419826
Anton_Drexler,1884,False,76619,3086,84,"Дрекслер, Антон",0.5693178648264204
Selman_Waksman,1888,False,121804,920,146,"Ваксман, Зельман",0.5691695186667548
Robert_Musil,1880,False,111465,1135,129,"Музиль, Роберт",0.5691058347621131
Wilhelm_Furtwängler,1886,False,174113,796,147,"Фуртвенглер, Вильгельм",0.5686147601413484
Éamon_de_Valera,1882,False,128970,755,164,"Валера, Имон де",0.5682896292856645
Carl_von_Ossietzky,1889,False,161005,1076,120,"Осецкий, Карл фон",0.5681397491842431
Johan_Laidoner,1884,False,144768,749,157,"Лайдонер, Йохан",0.5674413396691076
Theda_Bara,1885,False,131299,1310,109,Теда Бара,0.567106260966823
Max_Brod,1884,False,174872,1053,113,"Брод, Макс",0.5654711625652494
Giorgio_de_Chirico,1888,False,79385,1210,124,"Кирико, Джорджо де",0.5652246661861747
Heitor_Villa-Lobos,1887,False,106161,1287,109,"Вила-Лобос, Эйтор",0.5642348601103164
Sigrid_Undset,1882,False,153428,961,119,"Унсет, Сигрид",0.5637557856738175
Victor_Fleming,1889,False,122029,1143,111,"Флеминг, Виктор",0.5632215688019265
Hugo_Sperrle,1885,False,116526,1008,121,"Шперле, Хуго",0.5630328112309828
Édouard_Daladier,1884,False,129742,1031,116,"Даладье, Эдуард",0.5629138607618518
Arthur_Rubinstein,1887,False,122228,1711,86,"Рубинштейн, Артур",0.5614616433277654
Mohammad_Mosaddegh,1882,False,148839,1475,89,"Мосаддык, Мохаммед",0.5614297767572457
Mohammad_Mosaddegh,1882,False,148839,1475,89,"Мосаддык, Мохаммед",0.5614297767572457
René_Coty,1882,False,124049,1103,108,"Коти, Рене",0.5610244927275733
Otto_Heinrich_Warburg,1883,False,110976,1210,104,"Варбург, Отто Генрих",0.5606599534965376
Paul_Tillich,1886,False,125436,683,149,"Тиллих, Пауль",0.5605447476858416
Alcide_De_Gasperi,1881,False,156531,683,140,"Де Гаспери, Альчиде",0.5602216712196304
Robert_H._Goddard,1882,False,90687,1149,111,"Годдард, Роберт",0.5600548832139215
Angela_Hitler,1883,False,97026,2674,72,"Гитлер, Ангела",0.5600080634327308
Maximilian_von_Weichs,1881,False,105371,1833,83,"Вейхс, Максимилиан фон",0.5596981743618356
Otto_Frank,1889,False,136693,1351,91,"Франк, Отто",0.5592793271701889
Arthur_Eddington,1882,False,149456,931,111,"Эддингтон, Артур Стэнли",0.5592091756565847
Karen_Blixen,1885,False,118217,853,122,"Бликсен, Карен",0.5583901254028178
John_Logie_Baird,1888,False,109383,1429,88,"Бэрд, Джон Лоуги",0.5566743253266857
Robert_Schuman,1886,False,171783,755,117,"Шуман, Робер",0.5564762737568565
Karl_Barth,1886,False,154389,702,125,"Барт, Карл",0.5560053792484224
Maurice_Chevalier,1888,False,102491,930,113,"Шевалье, Морис",0.5559737403333068
Clementine_Churchill,1885,False,90115,1649,84,"Черчилль, Клементина",0.5558694315195154
Chandrasekhara_Venkata_Raman,1888,False,172993,569,141,Чандрасекхара Венката Раман,0.5552313217657746
Juan_Ramón_Jiménez,1881,False,121909,991,100,"Хименес, Хуан Рамон",0.5539231027291374
Franz_Marc,1880,False,83268,1106,101,"Марк, Франц",0.5534382106447592
Edward_Hopper,1882,False,84615,1692,79,"Хоппер, Эдвард",0.5525359360389128
Katherine_Mansfield,1888,False,104628,978,100,"Мэнсфилд, Кэтрин",0.5518951688291969
Gustav_Ludwig_Hertz,1887,False,136633,832,104,"Герц, Густав Людвиг",0.5517016099471854
Cecil_B._DeMille,1881,False,155976,534,139,"Демилль, Сесил Блаунт",0.5513386274795227
Yusif_Vazir_Chamanzaminli,1887,False,111326,504,156,"Чеменземинли, Юсиф Везир",0.5505226177455331
Hans-Jürgen_von_Arnim,1889,False,115957,832,105,"Арним, Ганс-Юрген фон",0.5504425126166108
Gabriela_Mistral,1889,False,122422,700,114,Габриэла Мистраль,0.5493586634893632
Tôn_Đức_Thắng,1888,False,113219,557,138,Тон Дык Тханг,0.5492111694391465
Sarvepalli_Radhakrishnan,1888,False,138499,586,126,"Радхакришнан, Сарвепалли",0.5491655054982207
Pio_of_Pietrelcina,1887,False,87775,1629,74,Пио из Пьетрельчины,0.5484244614440713
Roscoe_Arbuckle,1887,False,164871,674,107,"Арбакл, Роско",0.5482372567686212
Juan_Gris,1887,False,83770,689,123,Хуан Грис,0.5481564335735537
François_Darlan,1881,False,128729,928,91,"Дарлан, Франсуа",0.5478930524895732
Georg_Trakl,1887,False,147118,838,94,"Тракль, Георг",0.5477877689040346
Jacques_Maritain,1882,False,136932,723,105,"Маритен, Жак",0.5477608108760916
George_Enescu,1881,False,98589,775,106,"Энеску, Джордже",0.5469596448706949
Yitzhak_Ben-Zvi,1884,False,105744,784,103,"Бен-Цви, Ицхак",0.5467240138714315
Celâl_Bayar,1883,False,119662,1321,74,"Баяр, Махмуд Джеляль",0.5462906543527241
Jean_Arp,1886,False,97249,643,119,"Арп, Жан",0.5460760149645091
Tuti_Yusupova,1880,False,55885,746,123,"Юсупова, Тути (долгожительница)",0.5460559229312025
John_Foster_Dulles,1888,False,152932,982,82,"Даллес, Джон Фостер",0.5459973887833913
Irving_Langmuir,1881,False,109738,734,105,"Ленгмюр, Ирвинг",0.5459531282220537
Arnold_Rothstein,1882,False,68908,2956,56,"Ротштейн, Арнольд",0.5433820527819072
Evelyn_Nesbit,1884,False,124951,554,118,"Несбит, Эвелин",0.5433373699640108
"Lon_Chaney,_Sr.",1883,False,83748,883,93,"Чейни, Лон",0.5429462284439307
Fred_Quimby,1886,False,80020,699,108,"Куимби, Фред",0.5423208749526284
Victoria_Eugenie_of_Battenberg,1887,False,99111,921,86,Виктория Евгения Баттенбергская,0.5421310118197773
Ernst_Ludwig_Kirchner,1880,False,129242,868,82,"Кирхнер, Эрнст Людвиг",0.5407218824916319
Maurice_Utrillo,1883,False,76150,734,102,"Утрилло, Морис",0.5406918922503756
Emil_Jannings,1884,False,104245,527,120,"Яннингс, Эмиль",0.540500059422
Roy_Chapman_Andrews,1884,False,240443,295,166,"Эндрюс, Рой Чепмен",0.5397587282297786
Jean_de_Lattre_de_Tassigny,1889,False,145543,632,94,"Латр де Тассиньи, Жан Мари де",0.5388463444227265
Friedrich_Olbricht,1888,False,107692,1042,74,"Ольбрихт, Фридрих",0.5387656896538429
Leonid_Kulik,1883,False,75339,640,106,"Кулик, Леонид Алексеевич",0.5380202748087549
Gottfried_Benn,1886,False,115774,565,103,"Бенн, Готфрид",0.5371683982144828
Heinrich_Brüning,1885,False,153416,521,102,"Брюнинг, Генрих",0.5367734062247849
Max_Wertheimer,1880,False,88193,1068,73,"Вертгеймер, Макс",0.5366489530110198
Carl_Van_Vechten,1880,False,83145,676,95,"Ван Вехтен, Карл",0.5357846428258295
Georgia_O'Keeffe,1887,False,89881,501,113,"О’Кифф, Джорджия",0.5346405212505194
Günther_Lütjens,1889,False,75827,766,87,"Лютьенс, Гюнтер",0.5344299110248834
Gaston_Bachelard,1884,False,88029,723,87,"Башляр, Гастон",0.5342710879638835
Melanie_Klein,1882,False,89296,1030,70,"Кляйн, Мелани",0.5335662526138472
Auguste_Piccard,1884,False,85709,650,90,"Пиккар, Огюст",0.532342866166081
Stanisław_Ignacy_Witkiewicz,1885,False,111630,563,90,"Виткевич, Станислав Игнаций",0.5304665914892875
Hans_Geiger,1882,False,128040,512,93,"Гейгер, Ханс Вильгельм",0.5302177608407019
Ernst_Heinkel,1888,False,81003,714,82,"Хейнкель, Эрнст",0.5301499361598483
Conrad_Hilton,1887,False,97179,3411,41,"Хилтон, Конрад",0.5297030119037016
Al_Jolson,1886,False,75079,528,101,Эл Джолсон,0.5295924713356783
Rodolfo_Graziani,1882,False,112071,907,66,"Грациани, Родольфо",0.5292093358901765
Karol_Szymanowski,1882,False,94242,753,73,"Шимановский, Кароль",0.5274692266005317
Fan_S._Noli,1882,False,98875,284,153,Феофан (Ноли),0.5267619758575465
Ernst_Kretschmer,1888,False,79743,1086,61,"Кречмер, Эрнст",0.5263376116390299
Karl_von_Frisch,1886,False,160999,417,95,"Фриш, Карл фон",0.526329704118687
Edgard_Varèse,1883,False,87534,711,74,"Варез, Эдгар",0.525729235174661
Tomoyuki_Yamashita,1885,False,86839,730,72,"Ямасита, Томоюки",0.5250360375226301
Mack_Sennett,1880,False,103380,418,101,Мак Сеннет,0.5249399248311765
Walter_Huston,1883,False,118945,704,69,"Хьюстон, Уолтер",0.5248775062199383
Julian_Huxley,1887,False,118984,806,63,"Хаксли, Джулиан",0.5239719037854417
Hedda_Hopper,1885,False,120740,547,77,"Хоппер, Хедда",0.5228307233631795
William_Boeing,1881,False,70642,1184,56,"Боинг, Уильям Эдуард",0.5224982234193533
Roger_Martin_du_Gard,1881,False,108087,647,70,"Мартен дю Гар, Роже",0.5221881416119216
Max_Fleischer,1883,False,277356,329,94,"Флейшер, Макс",0.5219933243150242
Ettore_Bugatti,1881,False,73074,1184,55,"Бугатти, Этторе",0.5218200364314319
Percy_Williams_Bridgman,1882,False,100629,387,99,"Бриджмен, Перси Уильямс",0.5211068282291379
Giovanni_Messe,1883,False,100998,568,75,"Мессе, Джованни",0.5210125395629037
"Archibald_Wavell,_1st_Earl_Wavell",1883,False,110109,467,84,"Уэйвелл, Арчибальд",0.5209927206724495
Nadia_Boulanger,1887,False,131253,429,85,"Буланже, Надя",0.5203487249051871
Gabriel_Marcel,1889,False,87252,826,61,"Марсель, Габриэль",0.5199015452588442
Saint-John_Perse,1887,False,105690,410,91,Сен-Жон Перс,0.5198716292355785
"E._F._L._Wood,_1st_Earl_of_Halifax",1881,False,117476,420,87,"Вуд, Эдуард, 1-й граф Галифакс",0.5196643407116007
Vittorio_Pozzo,1886,False,210689,395,81,"Поццо, Витторио",0.5194574883993505
Luisa_Casati,1881,False,67638,1042,56,"Казати, Луиза",0.5188053596269623
Hans_Kelsen,1881,False,79050,935,57,"Кельзен, Ганс",0.5185541279268113
Pascin,1885,False,95224,281,125,"Паскин, Жюль",0.5183040931675337
Lothar_von_Arnauld_de_la_Perière,1886,False,96090,449,83,"Арно де ла Перьер, Лотар фон",0.5178270767085487
Harry_Nyquist,1889,False,67036,498,83,"Найквист, Гарри",0.5176098585062087
Louis_Durey,1888,False,173335,249,119,"Дюрей, Луи",0.5170818105105137
Jean_Monnet,1888,False,139481,841,53,"Монне, Жан",0.5170144372118385
Frans_Eemil_Sillanpää,1888,False,114066,388,85,"Силланпяя, Франс Эмиль",0.5156130053918402
Tod_Browning,1880,False,89989,476,77,"Броунинг, Тод",0.5155766025369802
James_F._Byrnes,1882,False,247464,518,61,"Бирнс, Джеймс Фрэнсис",0.5155557248643452
Paul_Karrer,1889,False,167766,254,113,"Каррер, Пауль",0.5155357715364312
Adolphe_Pégoud,1889,False,112028,232,136,"Пегу, Адольф",0.5153787527951253
Blaise_Cendrars,1887,False,134986,341,90,Блез Сандрар,0.5151745732107149
Georges_Bernanos,1888,False,86170,433,82,"Бернанос, Жорж",0.5150082067354073
Antisa_Khvichava,1880,False,56766,519,79,"Хвичава, Антиса",0.5148871154005248
Leopold_Stokowski,1882,False,117137,687,58,"Стоковский, Леопольд",0.5148100419226279
Wladimir_Burliuk,1886,False,76589,435,83,"Бурлюк, Владимир Давидович",0.5145589665026948
George_de_Hevesy,1885,False,104429,486,72,"Хевеши, Дьёрдь де",0.5144260771293537
André_Marty,1886,False,82863,415,84,"Марти, Андре",0.5143146566263735
Wacław_Sierpiński,1882,False,121228,395,79,"Серпинский, Вацлав",0.5134154912933004
Lauri_Kristian_Relander,1883,False,90606,320,99,"Реландер, Лаури Кристиан",0.5132820673450593
Petru_Groza,1884,False,131003,447,71,"Гроза, Петру",0.5131322595873455
Sacha_Guitry,1885,False,85298,466,75,"Гитри, Саша",0.5131222454260382
Jan_Masaryk,1886,False,100208,479,71,"Масарик, Ян",0.5128932763952936
Ugo_Cavallero,1880,False,97029,244,121,"Кавальеро, Уго",0.5116629989170511
Henry_H._Arnold,1886,False,132194,452,67,"Арнолд, Генри Харли",0.5107110289508381
Sarah_Knauss,1880,False,56278,2215,38,"Кнаусс, Сара",0.5104170802283704
Robert_J._Flaherty,1884,False,82305,362,85,"Флаэрти, Роберт",0.5101333086906917
Olaf_Stapledon,1886,False,109246,433,70,"Стэплдон, Олаф",0.5097586327166449
Jun'ichirō_Tanizaki,1886,False,84725,694,55,"Танидзаки, Дзюнъитиро",0.5091690701207773
St_John_Philby,1885,False,71193,367,84,"Филби, Гарри Сент-Джон Бриджер",0.5086670965718305
James_Franck,1882,False,96295,385,76,"Франк, Джеймс",0.5086237510646939
Sara_Teasdale,1884,False,85479,475,67,"Тисдэйл, Сара",0.5082792131176024
Vajiravudh,1880,False,106982,490,63,Вачиравуд,0.508256147677583
Otto_Stern,1888,False,87302,437,70,"Штерн, Отто",0.5079704540769303
Władysław_Raczkiewicz,1885,False,135453,630,52,"Рачкевич, Владислав",0.507635182960329
Henry_Moseley,1887,False,76773,437,71,"Мозли, Генри",0.507424895605752
"Joe_""King""_Oliver",1885,False,79441,358,80,"Оливер, Кинг",0.5066946256559041
Will_Durant,1885,False,101774,484,62,"Дюрант, Уильям Джеймс",0.5066051728532879
Nikolai_Cholodny,1882,False,122556,343,74,"Холодный, Николай Григорьевич",0.5056318847632146
Rajendra_Prasad,1884,False,102661,345,76,"Прасад, Раджендра",0.5054794323722042
Eleanor_Farjeon,1881,False,109250,385,69,"Фарджон, Элинор",0.505207920403876
Claude_Auchinleck,1884,False,113071,397,67,"Окинлек, Клод",0.5051053192628175
Claude_Rains,1889,False,109424,571,54,"Рейнс, Клод",0.5049786038015548
Victor_Francis_Hess,1883,False,112853,319,78,"Гесс, Виктор Франц",0.5047851195347878
Sylvia_Beach,1887,False,77484,456,65,"Бич, Сильвия",0.5045729828897781
Zoltán_Kodály,1882,False,137950,607,50,"Кодай, Золтан",0.5045381695391338
Carlo_Carrà,1881,False,75440,470,64,"Карра, Карло",0.5044915225306145
Harry_Benjamin,1885,False,96078,261,93,"Бенджамин, Гарри",0.5036524282542915
Eugen_Leviné,1883,False,82689,343,76,"Левине, Евгений",0.503282930282718
Mitsuru_Ushijima,1887,False,65892,522,59,"Усидзима, Мицуру",0.5022646538647915
Otto_Klemperer,1885,False,87940,379,68,"Клемперер, Отто",0.5020142049955794
Jisaburō_Ozawa,1886,False,76319,285,87,"Одзава, Дзисабуро",0.5019578293537383
Hannes_Kolehmainen,1889,False,223996,275,72,"Колехмайнен, Ханнес",0.5015106692324012
Fritz_Pfeffer,1889,False,88724,463,59,"Пфеффер, Фриц",0.5014523761424331
Max_Beckmann,1884,False,122347,504,53,"Бекман, Макс",0.5012718797395576
Jim_Thorpe,1887,False,115985,282,77,"Торп, Джим",0.5000398251398467
R._G._Collingwood,1889,False,87688,514,54,"Коллингвуд, Робин Джордж",0.4998865257764758
Emilio_Mola,1887,False,91674,504,54,"Мола, Эмилио",0.49970943397780154
Álvaro_Obregón,1880,False,94968,377,64,"Обрегон, Альваро",0.49961640999206336
María_Capovilla,1889,False,61064,679,49,"Каповилья, Мария Эстер де",0.49906190002853
Milan_Rastislav_Štefánik,1880,False,131049,345,63,"Штефаник, Милан Растислав",0.4987280009224758
Wallace_Beery,1885,False,131358,247,81,"Бири, Уоллес",0.49844846697060435
Jean_Hersholt,1886,False,74952,664,47,"Хершолт, Джин",0.4980770203737139
Ivan_Meštrović,1883,False,101135,212,96,"Мештрович, Иван",0.497363255394226
B._C._Forbes,1880,False,63948,1223,37,"Форбс, Берти Чарлз",0.49727001970531326
Joseph_Pilates,1883,False,57686,1052,39,"Пилатес, Йозеф",0.4961313788696425
Ralph_Hartley,1888,False,62647,419,60,"Хартли, Ральф",0.4959512575095534
Clinton_Davisson,1881,False,118913,235,81,"Дэвиссон, Клинтон Джозеф",0.4957179546539349
Georgios_Papandreou,1888,False,138399,256,73,"Папандреу, Георгиос (старший)",0.4956201427598251
Eurico_Gaspar_Dutra,1883,False,96509,236,84,"Дутра, Эурику Гаспар",0.4956153657271578
Seán_O'Casey,1880,False,121516,444,51,"О’Кейси, Шон",0.4953272709843248
Edgar_Adrian,1889,False,107521,258,75,"Эдриан, Эдгар Дуглас",0.49497333471121374
Christian_Mortensen,1882,False,72899,617,46,"Мортенсен, Кристиан",0.494610841492524
Jerome_Kern,1885,False,78948,546,48,"Керн, Джером",0.4943131930960551
Giovanni_Gronchi,1887,False,109020,243,77,"Гронки, Джованни",0.49403969781267787
Theo_van_Doesburg,1883,False,79282,386,58,"Дусбург, Тео ван",0.49388651446360043
José_Mendes_Cabeçadas,1883,False,196192,172,95,"Мендиш Кабесадаш Жуниор, Жозе",0.4938613674419013
Smedley_Butler,1881,False,73919,352,61,"Батлер, Смедли",0.4927704292942963
Amadeo_Bordiga,1889,False,79868,263,74,"Бордига, Амадео",0.4924485379329672
Charles_Williams_(UK_writer),1886,False,60844,432,55,"Уильямс, Чарльз Уолтер Стансби",0.49224088085054635
Max_Steiner,1888,False,204386,307,55,"Стайнер, Макс",0.49160640336351724
Joseph_Stilwell,1883,False,131608,179,93,"Стилуэлл, Джозеф Уоррен",0.49148873684680616
Manuel_Azaña,1880,False,130637,141,118,"Асанья-и-Диас, Мануэль",0.4900690953944062
Alain-Fournier,1886,False,82350,403,52,Ален-Фурнье,0.4900118546174337
René_Cassin,1887,False,111970,265,65,"Кассен, Рене",0.489786306116014
Archibald_Hill,1886,False,84873,298,62,"Хилл, Арчибалд",0.48925664154663795
Archibald_Hill,1886,False,84873,298,62,"Хилл, Арчибалд",0.48925664154663795
Gerald_Gardner_(Wiccan),1884,False,79316,493,46,"Гарднер, Джеральд",0.489102498874384
Paul_Lukas,1887,False,136874,218,72,"Лукас, Пол",0.4889091292083671
Marcus_Garvey,1887,False,64314,437,50,"Гарви, Маркус",0.4881725593978893
Manne_Siegbahn,1886,False,108941,207,77,"Сигбан, Карл Манне Георг",0.48795674284009866
Rudolf_Bultmann,1884,False,125083,227,69,"Бультман, Рудольф",0.4878043986711264
Aleksandras_Stulginskis,1885,False,96748,276,62,"Стульгинскис, Александрас",0.48776146594178316
Robert_Robinson_(organic_chemist),1886,False,123932,263,61,"Робинсон, Роберт",0.48737852279847715
"William_Halsey,_Jr.",1882,False,99680,259,64,"Холси, Уильям Фредерик",0.4872720692083083
Edith_Bratt,1889,False,63248,587,42,"Толкин, Эдит",0.48678546471651235
Hermann_Broch,1886,False,113369,379,48,"Брох, Герман",0.48664971441420196
Artur_Schnabel,1882,False,89470,339,53,"Шнабель, Артур",0.4862845071934317
Arnold_Zweig,1887,False,120012,308,53,"Цвейг, Арнольд",0.4856259097228051
John_Edensor_Littlewood,1885,False,70134,286,61,"Литлвуд, Джон Идензор",0.48539760445530455
Jacob_Fichman,1881,False,113106,134,114,"Фихман, Яков Ильич",0.4853571639439379
Sam_Langford,1883,False,95479,216,71,"Лэнгфорд, Сэм",0.48496250007801583
Walter_H._Schottky,1886,False,75178,396,48,"Шоттки, Вальтер",0.48447768519731826
Rómulo_Gallegos,1884,False,102052,247,62,"Гальегос, Ромуло",0.4843127369063074
Hermann_Staudinger,1881,False,138044,230,62,"Штаудингер, Герман",0.48420254963292775
Vinayak_Damodar_Savarkar,1883,False,79171,614,38,"Саваркар, Винаяк Дамодар",0.4841338256831321
Frits_Zernike,1888,False,102316,214,68,"Цернике, Фриц",0.4832962893075873
Arthur_Percival,1887,False,90049,345,49,"Персиваль, Артур Эрнест",0.48287162146070345
Henri_Coandă,1886,False,80716,301,53,"Коанда, Анри",0.48154136814111026
Asta_Nielsen,1881,False,75718,734,34,"Нильсен, Аста",0.4814460991231997
Marie_Vassilieff,1884,False,69797,339,50,"Васильева, Мария Ивановна (художница)",0.4811557437395506
Mirza_Basheer-ud-Din_Mahmood_Ahmad,1889,False,209933,121,100,Мирза Башируддин Махмуд Ахмад,0.4807543423204246
Otto_Bauer,1881,False,120646,318,47,"Бауэр, Отто",0.4805174823380728
"Bruce_Fraser,_1st_Baron_Fraser_of_North_Cape",1888,False,86294,268,55,"Фрэзер, Брюс",0.48005403798565305
Prince_Yasuhiko_Asaka,1887,False,79051,1047,29,Принц Ясухико,0.4796083660810667
Bertram_Ramsay,1883,False,92755,281,52,"Рамсей, Бертрам",0.4795004801177756
Tudor_Arghezi,1880,False,83209,204,67,Тудор Аргези,0.47911919417757853
Gladys_Cooper,1888,False,71953,314,50,"Купер, Глэдис",0.47899481071904326
Milan_Vidmar,1885,False,90462,185,71,"Видмар, Милан",0.4786073994955705
Billie_Burke,1885,False,83904,124,111,"Берк, Билли (актриса)",0.47841532742283954
Billie_Burke,1884,False,83904,124,111,"Берк, Билли (актриса)",0.47841532742283954
Rube_Goldberg,1883,False,66883,589,36,"Голдберг, Руб",0.4783315642683721
Gerrit_Rietveld,1888,False,72521,480,39,"Ритвельд, Геррит",0.4782707114320135
Ichirō_Hatoyama,1883,False,104652,278,50,"Хатояма, Итиро",0.4781716497691284
Sylvia_Pankhurst,1882,False,82119,303,49,"Панкхёрст, Сильвия Эстелла",0.47795815191334673
Sax_Rohmer,1883,False,75263,182,73,Сакс Ромер,0.47759062456857676
Florence_Lawrence,1886,False,102211,176,70,"Лоуренс, Флоренс",0.4770648947955294
Owen_Moore,1886,False,78539,132,100,"Мур, Оуэн",0.47694109491184855
Warner_Baxter,1889,False,86325,171,73,"Бакстер, Уорнер",0.4763084490584846
Leopold_Ružička,1887,False,92395,263,51,"Ружичка, Леопольд",0.4762886111689865
Marie-Louise_Meilleur,1880,False,60250,1667,25,"Мейор, Мария-Луиза",0.4761655068094629
Austin_Osman_Spare,1886,False,58162,492,38,"Спейр, Остин Осман",0.47551287326643843
Monteiro_Lobato,1882,False,62350,394,42,"Лобату, Монтейру",0.47550276748176207
Geoffrey_Fisher,1887,False,127960,123,94,"Фишер, Джеффри Фрэнсис",0.47549742118191085
Panait_Istrati,1884,False,92575,175,69,"Истрати, Панаит",0.47542256631565305
Takeo_Kurita,1889,False,114022,266,48,"Курита, Такэо",0.4753202228455174
Edith_Evans,1888,False,112945,185,63,"Эванс, Эдит",0.4752129677322964
Nicholas_Schenck,1881,False,70628,360,43,"Шенк, Николас",0.4751930826735678
Sessue_Hayakawa,1889,False,72569,200,61,"Хаякава, Сэссю",0.4730735238081695
Alf_Landon,1887,False,88563,184,63,"Лэндон, Альфред Моссман",0.47305156622080047
Barry_Fitzgerald,1888,False,95501,212,55,Барри Фицджеральд,0.4727115254592697
Thomas_Hart_Benton_(painter),1889,False,71492,255,50,"Бентон, Томас Гарт",0.4721359706350323
Masaharu_Homma,1887,False,69774,235,53,"Хомма, Масахару",0.4719811997625935
"John_W._Wilcox,_Jr.",1882,False,54686,226,57,"Уилкокс, Джон Уолтер",0.47192126113484095
Geoffrey_de_Havilland,1882,False,98401,210,54,"Де Хэвилленд, Джеффри",0.4717474684115289
Harlow_Shapley,1885,False,85730,197,58,"Шепли, Харлоу",0.47162985005569724
Döme_Sztójay,1883,False,118573,250,46,"Стояи, Дёме",0.471377786822987
Ferenc_Münnich,1886,False,93137,272,45,"Мюнних, Ференц",0.4711325619768522
Inge_Lehmann,1888,False,80402,187,60,"Леманн, Инге",0.4707045783588569
Ture_Nerman,1886,False,97405,119,91,"Нерман, Туре",0.4706772163430226
Frank_Lloyd,1886,False,104714,194,55,"Ллойд, Фрэнк (режиссёр)",0.4702249061156971
Broncho_Billy_Anderson,1880,False,84829,202,55,Брончо Билли Андерсон,0.4700137511742331
Theodor_Svedberg,1884,False,104576,224,49,"Сведберг, Теодор",0.4698226784717599
Victor_Goldschmidt,1888,False,75091,198,56,"Гольдшмидт, Виктор Мориц",0.46912128956322563
Toyoda_Soemu,1885,False,83435,196,55,"Тоёда, Соэму",0.46878715188690256
Hugh_Lofting,1886,False,118930,523,30,"Лофтинг, Хью",0.4686500882990025
Chester_Conklin,1886,False,72802,131,82,"Конклин, Честер",0.46859811168475773
Raymond_A._Spruance,1886,False,76853,267,44,"Спрюэнс, Рэймонд Эймс",0.4678108109469683
Beulah_Bondi,1889,False,85618,144,70,"Бонди, Бьюла",0.46761229461395104
John_Franklin_Enders,1887,False,118632,221,46,"Эндерс, Джон Франклин",0.46718630371146097
William_Temple_(bishop),1881,False,116158,135,68,"Темпл, Уильям",0.46614466478785305
Ben_Chifley,1885,False,142875,126,70,"Чифли, Бен",0.4659609706604641
Hans_Fischer,1881,False,93668,227,45,"Фишер, Ханс",0.4651756576876489
Otto_Fritz_Meyerhof,1884,False,78966,185,53,"Мейергоф, Отто",0.46452889243763973
Lluís_Companys,1883,False,84389,170,56,"Компанис, Луис",0.46443538320189004
Edna_May_Oliver,1883,False,72924,149,64,"Оливер, Эдна Мэй",0.4639715543134219
Willem_Drees,1886,False,115722,125,69,"Дрес, Виллем",0.4634792382680248
Paul_Wittgenstein,1887,False,76556,261,41,"Витгенштейн, Пауль",0.46337260120140455
Ramón_Grau,1882,False,82614,337,35,"Грау Сан-Мартин, Рамон",0.4630986229945098
Marthe_Richard,1889,False,88626,330,35,"Ришар, Марта",0.46303808286812126
Han_van_Meegeren,1889,False,86411,89,110,"Ван Мегерен, Хан",0.4627231834637065
Ants_Piip,1884,False,93282,123,71,"Пийп, Антс",0.4622982261669621
Edward_Weston,1886,False,73549,245,42,"Уэстон, Эдвард",0.4622664706907799
William_Frawley,1887,False,92745,218,43,"Фроули, Уильям",0.46142908577227937
Frank_Jack_Fletcher,1885,False,73138,194,48,"Флетчер, Фрэнк Джек",0.46095610560807915
Sisavang_Vong,1885,False,58605,337,35,Сисаванг Вонг,0.46030729111932145
Sveinn_Björnsson,1881,False,64355,149,60,Свейдн Бьёрнссон,0.4602191262335977
Yitzhak_HaLevi_Herzog,1888,False,74353,188,48,"Герцог, Ицхак Айзик",0.45997587441706655
Jan_Kubelík,1880,False,84702,150,56,"Кубелик, Ян",0.459682546324462
Tommy_Burns_(boxer),1881,False,66765,204,45,"Бёрнс, Томи",0.4588421722434341
Alexander_Vandegrift,1887,False,192105,180,42,"Вандегрифт, Александер",0.45880632124174664
Corrado_Gini,1884,False,61390,169,52,"Джини, Коррадо",0.4583009940989204
Raymonde_de_Laroche,1882,False,69937,245,39,"Ларош, Раймонда де",0.4579944395751922
Husband_E._Kimmel,1882,False,70448,584,26,"Киммел, Хазбенд",0.45794550849597204
Paul_Ramadier,1888,False,119968,145,52,"Рамадье, Поль",0.4576724360697258
Norman_Haworth,1883,False,83354,180,46,"Хоуорс, Уолтер Норман",0.4572845613416933
"Philip_Noel-Baker,_Baron_Noel-Baker",1889,False,90602,164,48,"Ноэль-Бейкер, Филип",0.45656666353389097
Thomas_C._Kinkaid,1888,False,73694,198,43,"Кинкейд, Томас Кэссин",0.45636139914810075
Stanley_Bruce,1883,False,115839,137,53,"Брюс, Стэнли",0.45604592282119144
Friedrich_Bergius,1884,False,107809,159,47,"Бергиус, Фридрих",0.4557235556630291
Gerhard_Ritter,1888,False,164945,154,44,"Риттер, Герхард",0.4543643476578483
Gunichi_Mikawa,1888,False,94224,173,43,"Микава, Гунъити",0.4535189793388334
Edward_Calvin_Kendall,1886,False,101877,144,49,"Кендалл, Эдуард",0.45350507258724254
Victor_McLaglen,1886,False,97398,157,46,"Маклаглен, Виктор",0.45348828209834285
Tadeusz_Kutrzeba,1886,False,89040,194,40,"Кутшеба, Тадеуш",0.45347478883047304
Walther_Schwieger,1885,False,54342,398,29,"Швигер, Вальтер",0.45320946947500207
Zoltán_Tildy,1889,False,92924,258,33,"Тилди, Золтан",0.4526723407838721
Roberto_María_Ortiz,1886,False,90640,196,39,"Ортис, Роберто Мария",0.4526586418837034
Ernest_Bloch,1880,False,111516,259,32,"Блох, Эрнест",0.45236695796583365
Peter_Fraser_(New_Zealand_politician),1884,False,113407,128,52,"Фрейзер, Питер",0.45234337950848097
Donald_Crisp,1882,False,95649,152,46,"Крисп, Дональд",0.4521514654006322
Harald_Sverdrup_(oceanographer),1888,False,72296,130,55,"Свердруп, Харальд Ульрик",0.45205540031492736
Walther_Meissner,1882,False,61242,188,42,"Мейснер, Вальтер Фриц",0.45195360622832986
Ring_Lardner,1885,False,81076,223,36,"Ларднер, Рингголд Уилмер",0.45187063361350177
Karl_Valentin,1882,False,113555,129,51,"Валентин, Карл",0.45180105826341377
Alfredo_Casella,1883,False,71897,218,37,"Казелла, Альфредо",0.4516776966858336
Marcel_Dupré,1886,False,77295,224,36,"Дюпре, Марсель",0.45165117394175724
Kuniaki_Koiso,1880,False,91343,281,31,"Коисо, Куниаки",0.4515198480380985
Allan_Dwan,1885,False,95439,144,47,"Двон, Аллан",0.4511057447605279
Anthony_Wilding,1883,False,205421,102,56,"Уайлдинг, Энтони",0.4500858528059536
Herbert_Spencer_Gasser,1888,False,82303,165,42,"Гассер, Герберт Спенсер",0.44966814129162175
Archie_Hahn,1880,False,126592,160,40,"Хан, Арчи",0.4492510884361273
James_B._Sumner,1887,False,87312,163,41,"Самнер, Джеймс Бетчеллер",0.44848940995905595
Bernardo_Houssay,1887,False,89318,167,40,"Усай, Бернардо Альберто",0.4482940422244518
Siegfried_Sassoon,1886,False,124566,266,29,"Сассун, Зигфрид",0.4481767642107033
H._L._Mencken,1880,False,68371,486,24,"Менкен, Генри Луис",0.44795464845461463
Ernst_Robert_Curtius,1886,False,127591,170,37,"Курциус, Эрнст Роберт",0.44748687780342566
Pearl_White,1889,False,89389,129,48,"Уайт, Перл",0.4473560541519691
Avery_Brundage,1887,False,94668,109,55,"Брендедж, Эйвери",0.4468913090708598
Joe_Masseria,1886,False,52550,1884,17,"Массерия, Джо",0.4467871024233612
August_Zaleski,1883,False,106055,277,28,"Залеский, Аугуст",0.4461310639189233
Lotte_Lehmann,1888,False,83283,121,50,"Леман, Лотта",0.4461291086320702
Karl_von_Terzaghi,1883,False,117646,112,50,"Терцаги, Карл",0.44546317930378243
Joyce_Cary,1888,False,62776,192,36,"Кэри, Джойс",0.4450416721806557
Nikolaos_Plastiras,1883,False,115475,127,44,"Пластирас, Николаос",0.44457712419214535
Alexander_Woollcott,1887,False,56700,259,30,"Вулкотт, Александр",0.44360032396028726
Edwin_Hubble,1889,False,162509,44,190,"Хаббл, Эдвин",0.44338969114049376
Spring_Byington,1886,False,72726,137,43,"Байинтон, Спринг",0.4430794916883704
Günther_Quandt,1881,False,46579,672,21,"Квандт, Гюнтер",0.4430456855141601
Richard_C._Tolman,1881,False,113754,202,31,"Толмен, Ричард Чейз",0.4429268256741122
George_Minot,1885,False,72349,136,42,"Майнот, Джордж",0.44166219293997544
Georges_Mandel,1885,False,94710,147,38,"Мандель, Жорж",0.4416074149564884
"Adolf_Friedrich_VI,_Grand_Duke_of_Mecklenburg-Strelitz",1882,False,120038,246,27,Адольф Фридрих VI Мекленбургский,0.441308879985363
Henry_Maitland_Wilson,1881,False,96860,110,47,"Уилсон, Генри Мейтленд",0.44065717074211724
Walton_Walker,1889,False,87406,412,22,"Уокер, Уолтон Гаррис",0.43985058822926787
Alphonse_Juin,1888,False,87552,194,31,"Жюэн, Альфонс",0.43980562627814346
Joseph_Bech,1887,False,112097,145,36,"Беш, Жозеф",0.43956066200403326
Nobutake_Kondō,1886,False,79294,134,40,"Кондо, Нобутакэ",0.43946154788784647
Pedro_Pablo_Ramírez,1884,False,86076,203,30,"Рамирес, Педро Пабло",0.43929583132780353
Rupert_Brooke,1887,False,77764,228,28,"Брук, Руперт",0.4381851264358786
Louis_St._Laurent,1882,False,77504,114,44,"Сен-Лоран, Луи",0.4375588882227553
George_David_Birkhoff,1884,False,105312,68,74,"Биркгоф, Джордж Дейвид",0.43752851643462515
Ado_Birk,1883,False,69929,106,47,"Бирк, Адо",0.43683804865949877
Friedrich_Kellner,1885,False,93975,79,60,"Кельнер, Фридрих",0.43623122579720874
Gian_Francesco_Malipiero,1882,False,68453,119,42,"Малипьеро, Джан Франческо",0.4362103664666881
Marion_Lorne,1883,False,70827,192,30,"Лорн, Мэрион",0.43614063602545994
"Thomas_Midgley,_Jr.",1889,False,65524,238,27,"Миджли, Томас",0.4360784488153303
John_Curtin,1885,False,129472,90,49,"Кэртин, Джон Джозеф",0.4360219986468484
John_Tovey,1885,False,95233,233,26,"Тови, Джон",0.4358502840994081
Sara_Allgood,1880,False,67083,110,44,"Олгуд, Сара",0.4351106367982506
Ernest_Ansermet,1883,False,78504,162,32,"Ансерме, Эрнест",0.4348331318998103
Thomas_Blamey,1884,False,141540,99,42,"Блэми, Томас",0.43384315516883387
Rudolf_Weigl,1883,False,107713,120,37,"Вайгль, Рудольф",0.4336828815346244
Nicholas_Charnetsky,1884,False,65455,88,53,Николай (Чарнецкий),0.4336086624081346
Aritomo_Gotō,1888,False,80135,131,36,"Гото, Аритомо",0.43357796862321524
Anna_Q._Nilsson,1888,False,62335,148,34,"Нильссон, Анна Квирентия",0.4332481766931175
Jacob_L._Devers,1887,False,75747,136,35,"Диверс, Джейкоб",0.433133732400619
Geraldine_Farrar,1882,False,69019,132,36,"Фаррар, Джеральдина",0.43279821091470067
Refik_Saydam,1881,False,68746,142,34,"Сайдам, Рефик",0.43251326961606334
Richard_Oswald,1880,False,61084,111,41,"Освальд, Рихард",0.4315978114984348
Nikolai_Astrup,1880,False,63426,120,38,"Аструп, Николай",0.43129988564413174
Agustín_Pío_Barrios,1885,False,49320,344,22,"Барриос, Агустин",0.43118645700909297
Fritz_Leiber_(Sr.),1882,False,69977,85,51,"Лейбер, Фриц-старший",0.4310316448553828
Robert_Hichens_(sailor),1882,False,70098,397,20,"Хиченс, Роберт (моряк)",0.4308074273023744
Lytton_Strachey,1880,False,80478,221,25,"Стрейчи, Литтон",0.4307694831973962
W._T._Cosgrave,1880,False,68601,134,34,"Косгрейв, Уильям Томас",0.4304500117824922
Tom_Mix,1880,False,72941,150,31,"Микс, Том",0.43003329679604285
Monty_Woolley,1888,False,107694,145,30,"Вулли, Монти",0.42975581003387364
Fritz_Reiner,1888,False,93538,191,26,"Райнер, Фриц",0.4297404810222272
Edwin_Fischer,1886,False,61489,105,41,"Фишер, Эдвин",0.42948134356497525
Giovanni_Battista_Caproni,1886,False,60863,533,18,"Капрони, Джованни Батиста",0.4288834299344274
W._C._Fields,1880,False,63492,292,22,"Филдс, Уильям Клод",0.42883007587944805
John_Boyd_Orr,1880,False,127149,152,28,"Орр, Джон Бойд",0.4286350194859006
Kaarel_Eenpalu,1888,False,90579,130,32,"Ээнпалу, Каарел",0.42819511278630984
Una_O'Connor_(actress),1880,False,61458,86,48,Уна О’Коннор,0.42812969084728303
Mineichi_Koga,1885,False,69799,105,39,"Кога, Минэити",0.4280982955543052
Alice_Paul,1885,False,73522,246,23,"Пол, Элис",0.4280651198692143
Friedrich_Lahrs,1880,False,79272,127,33,"Ларс, Фридрих",0.42803067601424905
Hugh_Walpole,1884,False,64595,138,32,"Уолпол, Хью",0.4279733419260817
William_L._Laurence,1888,False,55464,83,50,"Лоуренс, Уильям Л.",0.427535310611803
Paul_Bernays,1888,False,70232,147,30,"Бернайс, Пауль",0.427344153715436
Robinson_Jeffers,1887,False,76201,150,29,"Джефферс, Робинсон",0.4267625825396141
Arturo_Rawson,1885,False,79841,153,28,"Росон, Артуро",0.42581843819046467
Edward_Everett_Horton,1886,False,59713,86,45,"Хортон, Эдвард Эверетт",0.4252333068953025
Paul_Leni,1885,False,64465,155,28,"Лени, Пауль",0.42477751262116226
Jonathan_Mayhew_Wainwright_IV,1883,False,78310,169,26,"Уэйнрайт, Джонатан Мэйхью",0.4247307883233404
Anita_Loos,1888,False,65021,176,26,"Лус, Анита",0.424728546302635
Tarsila_do_Amaral,1886,False,70818,106,35,"Амарал, Тарсила ду",0.4234788014485476
Hans_Gerhard_Creutzfeldt,1885,False,65204,121,32,"Крейцфельдт, Ганс-Герхард",0.42339652641963177
Lima_Barreto,1881,False,73040,83,42,Афонсо Энрике де Лима Баррето,0.4221953702935924
Robert_A._Taft,1889,False,64302,252,21,"Тафт, Роберт Альфонсо",0.42198797998912063
Frigyes_Riesz,1880,False,67515,149,27,"Рис, Фридьеш",0.42180282228847116
Sybil_Thorndike,1882,False,78468,214,22,"Торндайк, Сибил",0.42178875083673506
Gleb_W._Derujinsky,1888,False,90525,91,37,"Дерюжинский, Глеб Владимирович",0.4217533774657946
Toivo_Kuula,1883,False,88302,131,28,"Куула, Тойво",0.4212556406900106
Alfons_Maria_Jakob,1884,False,63731,86,40,"Якоб, Альфонс",0.4206229939042718
Felicjan_Sławoj_Składkowski,1885,False,121332,100,32,"Складковский, Фелициан Славой",0.42035979389193634
Ma_Zhanshan,1885,False,74353,93,36,Ма Чжаньшань,0.42006358744171846
Earle_Page,1880,False,77802,102,33,"Пейдж, Эрл",0.41980843086182695
Willis_Augustus_Lee,1888,False,65555,119,30,"Ли, Уиллис Огастес",0.4195554043086374
Alison_Uttley,1884,False,60386,149,26,"Аттли, Элисон",0.418942768245082
Robert_L._Eichelberger,1886,False,89310,78,40,"Эйчелбергер, Роберт Лоуренс",0.4187759439208295
Hugo_Black,1886,False,70076,96,34,"Блэк, Хьюго",0.41822857389121243
Edna_Ferber,1887,False,83722,134,26,"Фарбер, Эдна",0.4176261706969889
Francis_Browne,1880,False,71726,159,24,"Браун, Фрэнсис",0.41760050784000213
George_Bancroft_(actor),1882,False,57582,144,26,"Бэнкрофт, Джордж (актёр)",0.4175104677787322
Kosaku_Yamada,1886,False,93081,113,28,"Ямада, Косаку",0.4164111332863009
James_Somerville,1882,False,79511,192,21,"Сомервилл, Джеймс",0.4158424001147334
Tom_Phillips_(Royal_Navy_officer),1888,False,67046,82,37,"Филлипс, Томас Спенсер Воган",0.4155582896095495
Jacob_Epstein,1880,False,65247,180,22,"Эпстайн, Джейкоб",0.4155499672779491
Hitoshi_Imamura,1886,False,55037,186,22,"Имамура, Хитоси",0.4153598072606866
Max_Ritter_von_Müller,1887,False,101506,84,34,"Мюллер, Макс фон",0.4153190786754929
Carl_Vinson,1883,False,62875,163,23,"Винсон, Карл",0.4149941607153662
Ion_Inculeț,1884,False,71030,238,19,"Инкулец, Ион Константинович",0.4145409072489626
Lancelot_Holland,1887,False,81414,163,22,"Холланд, Ланселот",0.41401869101002897
Josef_Frings,1887,False,67320,89,33,"Фрингс, Йозеф",0.4136057325715382
Arnold_Bax,1883,False,74931,129,25,"Бакс, Арнольд",0.41346229392202205
Charles_Sheeler,1883,False,67536,104,29,"Шилер, Чарлз",0.41317585637662146
Martha_Wentworth,1889,False,64069,115,27,"Вентворт, Марта",0.4127062113070539
Wilhelm_Backhaus,1884,False,103654,136,23,"Бакхауз, Вильгельм",0.41246836873184
Heinrich_Barkhausen,1881,False,63020,81,35,"Баркгаузен, Генрих",0.4121466971787472
Adrian_Boult,1889,False,114646,91,29,"Боулт, Адриан",0.41147766487667964
Harpo_Marx,1888,False,90052,199,19,"Маркс, Харпо",0.41119546068250146
Marjorie_Rambeau,1889,False,58257,65,43,"Рэмбю, Марджори",0.4110700826451885
Clara_Blandick,1880,False,58268,244,18,"Бландик, Клара",0.41023965911528004
Henry_J._Kaiser,1882,False,77108,198,19,"Кайзер, Генри Джон",0.41008945357193666
Carlo_Michelstaedter,1887,False,50778,62,45,"Микельштедтер, Карло",0.409824956451237
Lynn_Fontanne,1887,False,73815,103,27,"Фонтэнн, Линн",0.40971886903621174
Clifton_Webb,1889,False,157677,151,20,"Уэбб, Клифтон",0.40971527148183223
Alberto_Gerchunoff,1883,False,59560,55,50,"Герчунофф, Альберто",0.4093001908393727
Leon_Schlesinger,1884,False,50971,212,19,"Шлезингер, Леон",0.40925346375524235
Joaquín_Turina,1882,False,65030,172,20,"Турина, Хоакин",0.40830427394190066
"John_Jacob_Astor,_1st_Baron_Astor_of_Hever",1886,False,70082,111,25,"Астор, Джон Джейкоб V",0.4079350243749848
Alan_Goodrich_Kirk,1888,False,63271,120,24,"Кирк, Алан",0.4076896005035018
Seán_T._O'Kelly,1882,False,70827,117,24,"О’Келли, Шон Томас",0.4075595674594789
Harold_Rainsford_Stark,1880,False,102170,97,26,"Старк, Гарольд Рэйнсфорд",0.40755126630633415
George_Abbott,1887,False,88832,120,23,"Эббот, Джордж Фрэнсис",0.40741586941435404
Hubert_Wilkins,1888,False,58832,106,26,"Уилкинс, Джордж Губерт",0.40730201395767196
Pat_Sullivan_(film_producer),1885,False,72094,124,23,"Салливан, Пэт",0.40721323749198163
Cathleen_Nesbitt,1888,False,62825,135,22,"Несбитт, Кэтлин",0.4065168334924136
Holland_Smith,1882,False,69761,143,21,"Смит, Холланд",0.4062250315220565
Marguerite_Clark,1883,False,64180,60,40,"Кларк, Маргерит",0.4051768414958644
Oliver_Kirk,1884,False,82527,75,31,"Кирк, Оливер",0.4051311082867786
Shōji_Nishimura,1889,False,75123,167,19,"Нисимура, Сёдзи",0.4051136746701147
Johnny_Gruelle,1880,False,64852,109,24,"Грулл, Джонни",0.4045954365816821
Ben-Zion_Dinur,1884,False,75991,80,29,"Динур, Бен-Цион",0.4040126308482397
Charles_Ruggles,1886,False,79411,73,31,"Рагглз, Чарльз",0.40379818239723214
Walter_Nash,1882,False,100807,70,31,"Нэш, Уолтер",0.4034883554631849
Rebecca_Helferich_Clarke,1886,False,73303,75,30,"Кларк, Ребекка",0.40286135484296354
Claude_Dornier,1884,False,108244,260,15,"Дорнье, Клаудиус",0.4026450411561387
Sylvanus_Morley,1883,False,84574,85,26,"Морли, Сильванус",0.40153400512119075
Mary_Alden,1883,False,84619,46,48,"Олден, Мэри",0.4011900755807028
Vincent_Massey,1887,False,79606,71,30,"Мэсси, Винсент",0.4011448867465473
James_Cruze,1884,False,66157,79,28,"Круз, Джеймс",0.4009593230945575
Theodore_Kosloff,1882,False,75817,95,24,"Козлов, Фёдор Михайлович",0.4007550620783102
Ion_Agârbiceanu,1882,False,76858,73,29,"Агырбичану, Ион",0.40045273263473175
Ernest_Bevin,1881,False,67703,119,21,"Бевин, Эрнест",0.40023920082132575
Julius_Fromm,1883,False,70790,140,19,"Фромм, Юлиус",0.3995524804993743
Olga_Petrova,1884,False,58554,258,15,Ольга Петрова (актриса),0.3987849920352703
Marcel-Bruno_Gensoul,1880,False,61374,79,27,"Жансуль, Марсель-Брюно",0.3987076291310216
Enrico_Mizzi,1885,False,64924,59,34,"Мицци, Энрико",0.39770586106298145
Francisco_Canaro,1888,False,68185,166,17,"Канаро, Франсиско",0.39711190652386474
Sylvia_Ashton,1880,False,52912,52,39,"Эштон, Сильвия",0.39639778716171176
Percy_Grainger,1882,False,59679,144,18,"Грейнджер, Перси",0.39595289155771185
Alfred_Noyes,1880,False,70568,93,22,"Нойес, Альфред",0.39484383090530556
Hans_Wilsdorf,1881,False,80027,129,18,"Вильсдорф, Ганс",0.3944266930518813
William_A._Glassford,1886,False,54746,61,30,"Глассфорд, Уильям",0.39259195664067764
Robert_Kerr_(athlete),1882,False,86136,59,29,"Керр, Роберт (легкоатлет)",0.3923112987979579
Alfonso_López_Pumarejo,1886,False,79526,90,21,"Лопес Пумарехо, Альфонсо",0.3918127011093227
Mills_Brothers,1889,False,60752,286,13,The Mills Brothers,0.3905323224672114
Othmar_Schoeck,1886,False,65060,81,22,"Шёк, Отмар",0.38945343720986625
Kurt_Atterberg,1887,False,80648,121,17,"Аттерберг, Курт",0.3889160401013402
Marie_Doro,1882,False,56968,129,17,"Доро, Мари",0.38881488328638103
Margaret_Wycherly,1881,False,58138,68,25,"Вичерли, Маргарет",0.3887773951755571
Eduard_Künneke,1885,False,67307,56,29,"Кюннеке, Эдуард",0.38866744738211834
Alfred_Carlton_Gilbert,1884,False,91356,75,22,"Гилберт, Альфред",0.3885501132642526
Samuel_Berger_(boxer),1884,False,67073,84,21,"Бергер, Сэмюель",0.38840786700978186
Rudolf_Ramek,1881,False,102610,69,23,"Рамек, Рудольф",0.3883471619187015
Thomas_de_Hartmann,1885,False,51854,174,15,"Гартман, Фома Александрович",0.38823334548461785
Harukichi_Hyakutake,1888,False,56840,124,17,"Хякутакэ, Харукити",0.3876302260335441
James_Lightbody,1882,False,146629,63,23,"Лайтбоди, Джим",0.3866125314427177
Sophie_Tucker,1884,False,85811,218,13,"Такер, Софи",0.3863124610302117
Leevi_Madetoja,1887,False,72495,65,24,"Мадетойя, Лееви",0.38626267292815514
Charles_Reisner,1887,False,70877,63,24,"Рейснер, Чарльз",0.3848982112613634
George_Fitzmaurice,1885,False,101394,52,27,"Фицморис, Джордж",0.38447816940595725
Mary_Nash,1884,False,58586,64,24,"Нэш, Мэри",0.38443152048559764
Jonas_H._Ingram,1886,False,222431,74,19,"Ингрэм, Джонас Ховард",0.38441186384760156
Tringe_Smajli,1880,False,57823,76,21,"Смайли, Тринге",0.3839648543254523
Hugo_Bergmann,1883,False,86431,83,19,"Бергман, Шмуэль Хуго",0.3837885093795768
Louis_Chauvin,1881,False,45766,92,19,"Шовен, Луи",0.38364414798503876
Anton_Köllisch,1888,False,48535,144,15,"Кёлиш, Антон",0.3827842841794649
Margaret_Henley,1888,False,44484,175,14,"Хенли, Маргарет",0.3826109121904977
Roland_Young,1887,False,114022,142,14,"Янг, Роланд",0.3823485447536025
Marion_Leonard,1881,False,73977,65,22,"Леонард, Марион",0.3819642497282813
Watsuji_Tetsuro,1889,False,65796,90,18,"Вацудзи, Тэцуро",0.38189109146564093
William_Ronald_Dodds_Fairbairn,1889,False,78270,185,13,"Фэйрбейрн, Рональд",0.38184321131621957
Harry_Hillman,1881,False,129877,49,26,"Хиллман, Гарри",0.3813969376822564
Felix_Ysagun_Manalo,1886,False,69475,42,32,"Манало, Феликс",0.3800456753167918
Reggie_Walker,1889,False,77872,64,21,"Уокер, Реджи",0.3792304939538935
Frederick_Lane,1888,False,55163,63,22,"Лейн, Фредерик",0.37911354066779773
Margit_Slachta,1884,False,77529,42,30,"Шлахта, Маргит",0.3779858496056367
Armas_Launis,1884,False,67855,47,26,"Лаунис, Армас",0.376188507111875
A._Y._Jackson,1882,False,73419,61,20,"Джексон, Александер",0.37451501602569154
Carl_Ebert,1887,False,56310,46,25,"Эберт, Карл Антон",0.3724604136160588
George_Herriman,1880,False,53309,56,21,"Херриман, Джордж",0.37198151265805157
Conrad_Aiken,1889,False,85908,79,16,"Эйкен, Конрад",0.37193219218526946
Giovanni_Papini,1881,False,119660,191,11,"Папини, Джованни",0.37175748436863426
Jacobo_Palm,1887,False,58185,163,12,"Палм, Якобо",0.3711175724999511
Dimitrios_Semsis,1883,False,49669,42,27,"Семсис, Димитриос",0.3711034340731771
Andrej_Bicenko,1886,False,53071,44,25,"Биценко, Андрей Васильевич",0.3701869190798161
Alf_Common,1880,False,110607,90,14,"Коммон, Альф",0.36891499987780535
Gustavo_Jiménez,1886,False,73856,47,22,"Хименес, Густаво",0.3688657577545263
Forrest_Smithson,1884,False,79078,44,23,"Смитсон, Форрест",0.3684845561407139
Suzanne_Duchamp,1889,False,58247,68,17,"Дюшан, Сюзанна",0.3683459068068729
Takeo_Itō,1889,False,59369,52,20,"Ито, Такэо",0.3671673253445429
Paul_Pilgrim,1883,False,46766,55,19,"Пилгрим, Пол",0.3654383033326081
Olav_Aukrust,1883,False,49999,43,23,"Аукруст, Улав",0.3650881234966796
Norman_Thomas,1884,False,65278,102,13,"Томас, Норман",0.36505335993285065
Norman_Scott_(Medal_of_Honor),1889,False,63712,98,13,"Скотт, Норман",0.3637749823675001
Kid_Ory,1886,False,53622,97,13,Кид Ори,0.36258308309366793
Philip_Francis_Nowlan,1888,False,64501,93,13,"Нолан, Филип Фрэнсис",0.3623082872811816
Ty_Cobb,1886,False,99129,183,10,"Кобб, Тай",0.36205260979212794
Beno_Gutenberg,1889,False,94956,86,13,"Гутенберг, Бено",0.36186180780897986
Paltiel_Daykan,1885,False,54936,52,18,"Дайкан, Палтиэль",0.3613115867113303
Godfrey_Chevalier,1889,False,56046,112,12,"Шевалье, Годфри",0.36127904918710857
Ioannis_Demestichas,1882,False,65981,50,18,"Деместихас, Иоаннис",0.3607231801866341
Lynn_Thorndike,1882,False,64725,75,14,"Торндайк, Линн",0.36054072758470856
George_Kenney,1889,False,76842,73,14,"Кенни, Джордж Черчилль",0.3605157689394696
Wyndham_Halswelle,1882,False,80424,52,17,"Холсуэлл, Уиндхем",0.3601528734218035
Phraya_Manopakorn_Nititada,1884,False,74745,63,15,Манопхакон Нититхада,0.35965751435273147
Bessie_Barriscale,1884,False,53943,59,16,"Баррискейл, Бесси",0.3594621047379879
Rachel_Katznelson-Shazar,1885,False,54252,57,16,"Шазар-Кацнельсон, Рахель",0.3582508830685531
Konstantinos_Tsaldaris,1884,False,143207,69,13,"Цалдарис, Константинос",0.35676712382691195
Alvin_Cullum_York,1887,False,74617,228,9,"Йорк, Элвин Каллам",0.3562572748060107
Angelo_Iachino,1889,False,54646,66,14,"Якино, Анджело",0.35551808677959484
Pauline_Frederick,1883,False,62089,64,14,"Фредерик, Полин",0.35512606804777963
Cyclone_Taylor,1884,False,99502,59,14,"Тейлор, Циклон",0.3545609378252476
Suzanne_Bianchetti,1889,False,61103,50,16,"Бьянкетти, Сюзанна",0.3540076052940712
Louis_Charles_Breguet,1880,False,61224,106,11,"Бреге, Луи Шарль",0.3539468144448338
James_Stephenson,1889,False,53076,61,14,"Стивенсон, Джеймс",0.3527305240031957
Yehezkel_Abramsky,1886,False,55240,52,15,"Абрамский, Иехезкель",0.35135779176393994
Georges_Imbert,1884,False,53509,49,15,"Имберт, Георг",0.34901980892930073
Mamie_Smith,1883,False,59894,84,11,"Смит, Мэми",0.3474650983815903
Ernest_Palmer_(American_cinematographer),1885,False,102544,48,14,"Палмер, Эрнест",0.34728107014184273
Ugo_Pasquale_Mifsud,1889,False,59048,58,13,"Мифсуд, Уго Паскуале",0.34702151553344357
Walther_Stampfli,1884,False,89868,48,14,"Штампфли, Вальтер",0.3467088089492413
Roy_Geiger,1885,False,56329,105,10,"Гейгер, Рой",0.34615975793590253
José_Eustasio_Rivera,1888,False,97665,52,13,"Ривера, Хосе Эустасио",0.34552907563914365
Conrad_Helfrich,1886,False,54788,48,14,"Хелфрих, Конрад Эмил Ламберт",0.3444577333126863
H.N._Werkman,1882,False,95277,68,11,"Веркман, Хендрик Николаас",0.3433372721758019
Mary_Boland,1882,False,55982,93,10,"Боланд, Мэри",0.34298505945592284
Masao_Maruyama_(Japanese_Army_officer),1889,False,54308,46,14,"Маруяма, Масао (генерал-лейтенант)",0.3428546170339369
Lloyd_Fredendall,1883,False,53502,86,10,"Фредендалль, Ллойд",0.34068854226304357
Petros_Voulgaris,1884,False,90152,75,10,"Вулгарис, Петрос",0.339202369898052
William_Hood_Simpson,1888,False,75769,59,11,"Симпсон, Уильям Худ",0.3379498374285177
Harry_Ruby,1885,False,75658,57,11,"Руби, Гарри",0.3368469188240475
Karel_Doorman,1889,False,68287,15,54,"Дорман, Карел",0.33640431106519736
Theodore_Stark_Wilkinson,1888,False,61041,45,12,"Уилкинсон, Теодор",0.3335147231703108
Paul_Legentilhomme,1884,False,73452,51,11,"Лежентильом, Поль",0.3331064223960127
Hermann_Obrecht,1882,False,52545,53,11,"Обрехт, Герман",0.33291898217089644
Ma_Rainey,1886,False,89621,218,7,Ма Рейни,0.33270702947427533
Ethel_Clayton,1882,False,52683,49,11,"Клейтон, Этель",0.33035834093971483
Ralph_Craig,1889,False,114943,67,9,"Крэйг, Ральф",0.3291271036655176
George_Preca,1880,False,64666,32,13,"Прека, Джордж",0.32544221941576873
Otto_Froitzheim,1884,False,50391,90,8,"Фройцхайм, Отто",0.3242006756310437
Alberto_di_Jorio,1884,False,57356,31,13,"Жорио, Альберто ди",0.32365473172321957
Robert_Alfred_Theobald,1884,False,54269,44,10,"Теобальд, Роберт Альфред",0.320743690870965
Zengo_Yoshida,1885,False,50097,73,8,"Ёсида, Дзэнго",0.3190115355846573
"George_Monckton-Arundell,_8th_Viscount_Galway",1882,False,101531,44,9,"Монктон-Арунделл, Джордж",0.3160133721881863
Albert_Hill_(athlete),1889,False,110262,58,8,"Хилл, Альберт",0.3158835935517561
John_Lavarack,1885,False,115044,27,11,"Лаварак, Джон",0.311355032145084
Antoni_Łomnicki,1881,False,86332,69,7,"Ломницкий, Антоний",0.308700414535326
Lesley_J._McNair,1883,False,54323,74,7,"Макнейр, Лесли",0.30869637633367786
Gabriel_Voisin,1880,False,103554,11,39,"Вуазен, Габриель",0.3074669158731184
Shigeyoshi_Inoue,1889,False,58380,120,6,"Иноуэ, Сигэёси",0.30508501494744017
Charles_Reidpath,1889,False,86018,41,7,"Рейдпат, Чарльз",0.29481346431406735
Ya'akov_Cohen_(writer),1881,False,57712,40,7,"Кахан, Яаков",0.2927860397303242
Oscar_Griswold,1886,False,57137,64,6,"Грисуолд, Оскар",0.2920547245134994
Alexander_Patch,1889,False,57923,118,5,"Патч, Александер",0.28613206682455833
Walter_Johnson,1887,False,76067,76,5,"Джонсон, Уолтер",0.2791367400844214
Michał_Sopoćko,1888,False,57348,77,5,"Сопоцько, Михал",0.2785401403271994
Tris_Speaker,1888,False,92981,32,6,"Спикер, Трис",0.2757056437342805
Jinichi_Kusaka,1888,False,49976,125,4,"Кусака, Дзинъити",0.26131080132258944
Nishizō_Tsukahara,1887,False,49452,145,2,"Цукахара, Нисидзо",0.1604162248420722
L._S._Lowry,1887,False,184390,0,84,"Лаури, Лоуренс Стивен",0.1282602092558185
Chester_Gillette,1883,False,71631,0,97,"Джиллетт, Честер",0.12811061843062974
Aristides_de_Sousa_Mendes,1885,False,114918,0,78,"Соуза Мендеш, Аристидеш де",0.12778778233513963
Prince_Naruhiko_Higashikuni,1887,False,111993,0,58,Хигасикуни-но-мия Нарухико,0.12685673382287266
Walter_Rudolf_Hess,1881,False,120844,0,47,"Гесс, Вальтер",0.12617237670720488
Eleazar_López_Contreras,1883,False,129053,0,45,"Лопес Контрерас, Элеасар",0.12604907435665108
Hasui_Kawase,1883,False,101631,0,45,"Кавасэ, Хасуй",0.12591660869542837
Manuel_Prado_Ugarteche,1889,False,119807,0,42,"Прадо-и-Угартече, Мануэль",0.12574903734587575
Violet_MacMillan,1887,False,71182,0,40,"Макмиллан, Вайолет",0.12526333727006245
Maude_Fealy,1881,False,74822,0,36,"Фили, Мод",0.12487199784266555
Raimu,1883,False,104444,0,34,"Ремю, Жюль",0.12482402878705397
"John_S._McCain,_Sr.",1884,False,150374,0,25,"Маккейн-старший, Джон Сидни",0.12360669438383232
Hans_Richter_(artist),1888,False,113879,0,25,"Рихтер, Ханс (художник)",0.12346180344703808
Irene_Fenwick,1887,False,68485,0,25,"Фенвик, Ирен",0.1231790157588605
Miles_Malleson,1888,False,190840,0,19,"Маллесон, Майлс",0.12224752499129125
Millard_Harmon,1888,False,57528,0,13,"Хармон, Миллард",0.11915551190515805
Princess_Sophie_of_Schönburg-Waldenburg,1885,False,69199,0,11,София Албанская,0.1179675263878129
Louise_Schroeder,1887,False,71184,0,9,"Шрёдер, Луиза",0.11621964159944845
Ida_Rentoul_Outhwaite,1888,False,67966,0,9,"Рентул-Аутуэйт, Айда",0.11619582120730217
George_Bagration_of_Mukhrani,1884,False,62660,0,7,"Багратион-Мухранский, Георгий Александрович",0.11353693088678897
Alfonso_de_Orleans_y_Borbón,1886,False,141955,0,6,"Инфант Альфонсо, герцог Галлиера",0.11201515884773398
Bidhan_Chandra_Roy,1882,False,87744,0,6,"Рой, Бидхан Чандра",0.11180364707722772
Ernest_Marsden,1889,False,63895,0,6,"Марсден, Эрнест",0.11165461726252307
James_Gleason,1882,False,59455,0,6,"Глисон, Джеймс",0.11161963721483004
Guccio_Gucci,1881,False,53963,0,5,"Гуччи, Гуччио",0.10897698886851266
Rembrandt_Bugatti,1884,False,70230,0,4,"Бугатти, Рембрандт",0.10522356669169113
Robert_C._Giffen,1886,,1,1,1,?,0.05448825167540282
Porfirio_Barba-Jacob,1883,,1,1,1,?,0.05448825167540282
Gustav_Herglotz,1881,,1,1,1,?,0.05448825167540282
Richard_Cramer,1889,,1,1,1,?,0.05448825167540282
Charlie_Parker_(cricketer),1882,,1,1,1,?,0.05448825167540282
Robert_L._Thornton,1880,,1,1,1,?,0.05448825167540282
Frederick_J._Horne,1880,,1,1,1,?,0.05448825167540282
Johanna_Westerdijk,1883,,1,1,1,?,0.05448825167540282
Amedeo_Maiuri,1886,,1,1,1,?,0.05448825167540282
"John_Rodgers_(naval_officer,_World_War_I)",1881,,1,1,1,?,0.05448825167540282
Helen_Hoyt,1887,,1,1,1,?,0.05448825167540282
George_Kenner,1888,,1,1,1,?,0.05448825167540282
Frederick_Hawksworth,1884,,1,1,1,?,0.05448825167540282
Heikki_Ritavuori,1880,,1,1,1,?,0.05448825167540282
Boshirō_Hosogaya,1888,,1,1,1,?,0.05448825167540282
Ewart_Astill,1888,,1,1,1,?,0.05448825167540282
Vean_Gregg,1885,,1,1,1,?,0.05448825167540282
Edna_Goodrich,1883,,1,1,1,?,0.05448825167540282
Edward_Hanson,1889,,1,1,1,?,0.05448825167540282
Anne_Bauchens,1882,,1,1,1,?,0.05448825167540282
Ernest_Tyldesley,1889,,1,1,1,?,0.05448825167540282
Margarita_Fischer,1886,,1,1,1,?,0.05448825167540282
Charles_Christie,1880,,1,1,1,?,0.05448825167540282
Channing_Pollock_(writer),1880,,1,1,1,?,0.05448825167540282
Heinrich_Schlusnus,1888,,1,1,1,?,0.05448825167540282
Doris_Blackburn,1889,,1,1,1,?,0.05448825167540282
Gadicherla_Harisarvottama_Rao,1883,,1,1,1,?,0.05448825167540282
Edgar_Church,1888,,1,1,1,?,0.05448825167540282
Alfred_Francis_Blakeney_Carpenter,1881,,1,1,1,?,0.05448825167540282
Tom_Brown_(trombonist),1888,,1,1,1,?,0.05448825167540282
Walden_L._Ainsworth,1886,,1,1,1,?,0.05448825167540282
Reuvein_Margolies,1889,,1,1,1,?,0.05448825167540282
Giulio_Gavotti,1882,,1,1,1,?,0.05448825167540282
Robert_G._Fowler,1884,,1,1,1,?,0.05448825167540282
Zoë_Akins,1886,,1,1,1,?,0.05448825167540282
Armand_J._Piron,1888,,1,1,1,?,0.05448825167540282
Edwin_Balmer,1883,,1,1,1,?,0.05448825167540282
George_Roby_Dempster,1887,,1,1,1,?,0.05448825167540282
George_McMillin,1889,,1,1,1,?,0.05448825167540282
Frank_Foster_(cricketer),1889,,1,1,1,?,0.05448825167540282
Arthur_L._Bristol,1886,,1,1,1,?,0.05448825167540282
Reginald_Barker,1886,,1,1,1,?,0.05448825167540282
Pieter_Voltelyn_Graham_van_der_Byl,1889,,1,1,1,?,0.05448825167540282
Maurice_Boyau,1888,,1,1,1,?,0.05448825167540282
T._F._O'Rahilly,1883,,1,1,1,?,0.05448825167540282
Bernard_Rawlings_(Royal_Navy_officer),1889,,1,1,1,?,0.05448825167540282
Henri_Fabre,1882,,1,1,1,?,0.05448825167540282
John_R._Sinnock,1888,,1,1,1,?,0.05448825167540282
Syed_Zafarul_Hasan,1885,,1,1,1,?,0.05448825167540282
Julio_Lozano_Díaz,1885,,1,1,1,?,0.05448825167540282
Jesse_Pennington,1883,,1,1,1,?,0.05448825167540282
Harry_Antrim,1884,,1,1,1,?,0.05448825167540282
Rai_Rajeshwar_Bali,1889,,1,1,1,?,0.05448825167540282
Cliff_Sterrett,1883,,1,1,1,?,0.05448825167540282
John_H._Hoover,1887,,1,1,1,?,0.05448825167540282
E._L._Grant_Watson,1885,,1,1,1,?,0.05448825167540282
Anna_Rüling,1880,,1,1,1,?,0.05448825167540282
Kanoko_Okamoto,1889,,1,1,1,?,0.05448825167540282
Murray_Kinnell,1889,,1,1,1,?,0.05448825167540282
Arthur_Borton,1883,,1,1,1,?,0.05448825167540282
Doris_Keane,1881,,1,1,1,?,0.05448825167540282
F._Burrall_Hoffman,1882,,1,1,1,?,0.05448825167540282
Jacques_Majorelle,1886,,1,1,1,?,0.05448825167540282
Allama_Mashriqi,1888,,1,1,1,?,0.05448825167540282
Aurelio_Mosquera,1883,,1,1,1,?,0.05448825167540282
"Max_Moody,_Sr.",1883,,1,1,1,?,0.05448825167540282
Emma_Asson,1889,,1,1,1,?,0.05448825167540282
Tutt_Brothers,1882,,1,1,1,?,0.05448825167540282
Avra_Theodoropoulou,1880,,1,1,1,?,0.05448825167540282
Chaturbhuj_Sahay,1883,,1,1,1,?,0.05448825167540282
Rudolph_Palm,1880,,1,1,1,?,0.05448825167540282
Marius_Canard,1888,,1,1,1,?,0.05448825167540282
Kristian_Hellström,1880,,1,1,1,?,0.05448825167540282
Michael_Considine,1885,,1,1,1,?,0.05448825167540282
William_R._Munroe,1886,,1,1,1,?,0.05448825167540282
Muriel_Hazel_Wright,1889,,1,1,1,?,0.05448825167540282
Aketo_Nakamura,1889,,1,1,1,?,0.05448825167540282
George_Barker_(painter),1882,,1,1,1,?,0.05448825167540282
Alessandro_Guidoni,1880,,1,1,1,?,0.05448825167540282
Gengo_Hyakutake,1882,,1,1,1,?,0.05448825167540282
T._Sathasiva_Iyer,1882,,1,1,1,?,0.05448825167540282
Ferenc_Talányi,1883,,1,1,1,?,0.05448825167540282
William_D._Francis,1889,,1,1,1,?,0.05448825167540282
Reşit_Süreyya_Gürsey,1889,,1,1,1,?,0.05448825167540282
John_Willard_(playwright),1885,,1,1,1,?,0.05448825167540282
Nathan_Post,1881,,1,1,1,?,0.05448825167540282
George_H._Plympton,1889,,1,1,1,?,0.05448825167540282
"Charles_M._Cooke,_Jr.",1886,,1,1,1,?,0.05448825167540282
Shiro_Kawase,1889,,1,1,1,?,0.05448825167540282
Peter_Bocage,1887,,1,1,1,?,0.05448825167540282
Jessie_Arms_Botke,1883,,1,1,1,?,0.05448825167540282
Raymond_Stanton_Patton,1882,,1,1,1,?,0.05448825167540282
Z._D._Mangoaela,1883,,1,1,1,?,0.05448825167540282
Elisabeth_Tamm,1880,,1,1,1,?,0.05448825167540282
Royal_H._Weller,1881,,1,1,1,?,0.05448825167540282
Richard_C._Saufley,1884,,1,1,1,?,0.05448825167540282
Clara_Nordström,1886,,1,1,1,?,0.05448825167540282
Robert_James_Hudson,1885,,1,1,1,?,0.05448825167540282
Nicholas_H._Heck,1882,,1,1,1,?,0.05448825167540282
Charles_Armijo_Woodruff,1884,,1,1,1,?,0.05448825167540282
Oscar_A._C._Lund,1885,,1,1,1,?,0.05448825167540282
Andrew_Watson_Myles,1884,,1,1,1,?,0.05448825167540282
John_Palm,1885,,1,1,1,?,0.05448825167540282
Louise_Marion_Bosworth,1881,,1,1,1,?,0.05448825167540282
István_Kühár,1887,,1,1,1,?,0.05448825167540282
Ola_Solberg,1886,,1,1,1,?,0.05448825167540282
Dimitrana_Ivanova,1881,,1,1,1,?,0.05448825167540282
Loyal_Blaine_Aldrich,1884,,1,1,1,?,0.05448825167540282
William_T._Bovie,1882,,1,1,1,?,0.05448825167540282
James_P._Boyle,1885,,1,1,1,?,0.05448825167540282
Herb_Byrne,1887,,1,1,1,?,0.05448825167540282
Oswald_Short,1883,,1,1,1,?,0.05448825167540282
Doris_Große,1884,,1,1,1,?,0.05448825167540282
Bede_Fanning,1885,,1,1,1,?,0.05448825167540282
Catherine_Schleimer-Kill,1884,,1,1,1,?,0.05448825167540282
Chen_Xiefen,1883,,1,1,1,?,0.05448825167540282
Thakur_Anukulchandra,1888,,1,1,1,?,0.05448825167540282
"Enea_Bossi,_Sr.",1888,,1,1,1,?,0.05448825167540282
Sōjin_Kamiyama,1884,,1,1,1,?,0.05448825167540282
Edgar_Stehli,1884,,1,1,1,?,0.05448825167540282
Antonina_De_Angelis,1880,,1,1,1,?,0.05448825167540282
George_Gaul,1885,,1,1,1,?,0.05448825167540282
Mario_Talavera,1885,,1,1,1,?,0.05448825167540282
Olivia_Nordgren,1880,,1,1,1,?,0.05448825167540282
Beatrice_Kerr,1887,,1,1,1,?,0.05448825167540282
Arch_McCarthy,1881,,1,1,1,?,0.05448825167540282
Frank_Burke_(baseball),1880,,1,1,1,?,0.05448825167540282
Dutch_Sterrett,1889,,1,1,1,?,0.05448825167540282
Cedric_Holland,1889,,1,1,1,?,0.05448825167540282
Charles_Exeter_Devereux_Crombie,1880,,1,1,1,?,0.05448825167540282
Ferenc_Oslay,1883,,1,1,1,?,0.05448825167540282
Harry_A._Marmer,1885,,1,1,1,?,0.05448825167540282
John_H._Hester,1886,,1,1,1,?,0.05448825167540282
Wyncie_King,1884,,1,1,1,?,0.05448825167540282
"Zdzisław_Żygulski,_Sr.",1888,,1,1,1,?,0.05448825167540282
M._Louise_Gross,1884,,1,1,1,?,0.05448825167540282
Ethel_May_Halls,1882,,1,1,1,?,0.05448825167540282
Lee_W._Stanley,1885,,1,1,1,?,0.05448825167540282
Heisuke_Abe,1886,,1,1,1,?,0.05448825167540282
Leo_Otis_Colbert,1883,,1,1,1,?,0.05448825167540282
G._Murray_Hulbert,1881,,1,1,1,?,0.05448825167540282
C._E._Woolman,1889,,1,1,1,?,0.05448825167540282
Shoeless_Joe_Jackson,1887,,1,1,1,?,0.05448825167540282
Leonie_von_Meusebach–Zesch,1882,,1,1,1,?,0.05448825167540282
Isabel_J._Cox,1882,,1,1,1,?,0.05448825167540282
Fritz_August_Breuhaus_de_Groot,1883,,1,1,1,?,0.05448825167540282
Harry_Sunderland,1889,,1,1,1,?,0.05448825167540282
Claude_Roger-Marx,1888,,1,1,1,?,0.05448825167540282
Michael_Somogyi,1883,,1,1,1,?,0.05448825167540282
Rafael_Arévalo_Martínez,1884,,1,1,1,?,0.05448825167540282
Kirk_Bryan_(geologist),1888,,1,1,1,?,0.05448825167540282
Mike_Brady_(golfer),1887,,1,1,1,?,0.05448825167540282
Giuseppe_Tellera,1882,,1,1,1,?,0.05448825167540282
Frank_Tarrant,1880,,1,1,1,?,0.05448825167540282
Albert_Orsborn,1886,,1,1,1,?,0.05448825167540282
Otto_Dowling,1881,,1,1,1,?,0.05448825167540282
Sadayoshi_Tanabe,1888,,1,1,1,?,0.05448825167540282
Hawthorne_C._Gray,1889,,1,1,1,?,0.05448825167540282
Valli_Valli,1882,,1,1,1,?,0.05448825167540282
Stephen_Galatti,1888,,1,1,1,?,0.05448825167540282
Donald_B._Beary,1888,,1,1,1,?,0.05448825167540282
Alice_Hollister,1886,,1,1,1,?,0.05448825167540282
William_Whitworth,1884,,1,1,1,?,0.05448825167540282
Dorothy_Donnelly,1880,,1,1,1,?,0.05448825167540282
Markus_Reiner,1886,,1,1,1,?,0.05448825167540282
MacGillivray_Milne,1882,,1,1,1,?,0.05448825167540282
Eduard_C._Lindeman,1885,,1,1,1,?,0.05448825167540282
Thomas_Quinlan_(impresario),1881,,1,1,1,?,0.05448825167540282
R._Williams_Parry,1884,,1,1,1,?,0.05448825167540282
Louis_Wagner,1882,,1,1,1,?,0.05448825167540282
Armand_Annet,1888,,1,1,1,?,0.05448825167540282
María_Beatriz_del_Rosario_Arroyo,1884,,1,1,1,?,0.05448825167540282
Stuart_Paton,1883,,1,1,1,?,0.05448825167540282
Yitzhak_Baer,1888,,1,1,1,?,0.05448825167540282
Orrick_Johns,1887,,1,1,1,?,0.05448825167540282
Léon_Noël,1888,,1,1,1,?,0.05448825167540282
Liberato_Pinto,1880,,1,1,1,?,0.05448825167540282
Naum_Torbov,1880,,1,1,1,?,0.05448825167540282
Aubrey_Faulkner,1881,,1,1,1,?,0.05448825167540282
Wilhelm_Fritz_von_Roettig,1888,,1,1,1,?,0.05448825167540282
Siegmund_Glücksmann,1884,,1,1,1,?,0.05448825167540282
Tenby_Davies,1884,,1,1,1,?,0.05448825167540282
Tore_Ørjasæter,1886,,1,1,1,?,0.05448825167540282
René_Cresté,1881,,1,1,1,?,0.05448825167540282
Manuel_Pérez_y_Curis,1884,,1,1,1,?,0.05448825167540282
Vin_Coutie,1881,,1,1,1,?,0.05448825167540282
Campbell_Tait,1886,,1,1,1,?,0.05448825167540282
Zerna_Sharp,1889,,1,1,1,?,0.05448825167540282
Pete_Wendling,1888,,1,1,1,?,0.05448825167540282
Ernest_Pingoud,1887,,1,1,1,?,0.05448825167540282
John_Morton-Finney,1889,,1,1,1,?,0.05448825167540282
William_Douglas_Cook,1884,,1,1,1,?,0.05448825167540282
Carroll_McComas,1886,,1,1,1,?,0.05448825167540282
Lucy_Tayiah_Eads,1888,,1,1,1,?,0.05448825167540282
Nicolette_Bruining,1886,,1,1,1,?,0.05448825167540282
Mariano_Andreu,1888,,1,1,1,?,0.05448825167540282
Richard_Maury,1882,,1,1,1,?,0.05448825167540282
Zeng_Junchen,1888,,1,1,1,?,0.05448825167540282
Herbert_Strudwick,1880,,1,1,1,?,0.05448825167540282
Percy_C._Mather,1882,,1,1,1,?,0.05448825167540282
Kojo_Tovalou_Houénou,1887,,1,1,1,?,0.05448825167540282
John_van_Melle,1887,,1,1,1,?,0.05448825167540282
George_Shiels,1886,,1,1,1,?,0.05448825167540282
Luis_Cluzeau_Mortet,1888,,1,1,1,?,0.05448825167540282
Raymond_DeWalt,1885,,1,1,1,?,0.05448825167540282
Merrill_C._Meigs,1883,,1,1,1,?,0.05448825167540282
Tomoshige_Samejima,1889,,1,1,1,?,0.05448825167540282
Jessie_Aspinall,1880,,1,1,1,?,0.05448825167540282
Edwin_Keppel_Bennett,1887,,1,1,1,?,0.05448825167540282
Benjamin_McCandlish,1886,,1,1,1,?,0.05448825167540282
Richard_S._Edwards,1885,,1,1,1,?,0.05448825167540282
Frank_Christian_(trumpeter),1887,,1,1,1,?,0.05448825167540282
Robert_McKeen,1884,,1,1,1,?,0.05448825167540282
Essington_Lewis,1881,,1,1,1,?,0.05448825167540282
Eduard_Ritter_von_Schleich,1888,,1,1,1,?,0.05448825167540282
Dorothy_Campbell,1883,,1,1,1,?,0.05448825167540282
Gaby_Deslys,1881,,1,1,1,?,0.05448825167540282
Hiram_Wesley_Evans,1881,,1,1,1,?,0.05448825167540282
Will_Hay,1888,,1,1,1,?,0.05448825167540282
Julius_Freed,1887,,1,1,1,?,0.05448825167540282
Percy_Kilbride,1888,,1,1,1,?,0.05448825167540282
Franklin_Pierce_Adams,1881,,1,1,1,?,0.05448825167540282
Abe_Attell,1883,,1,1,1,?,0.05448825167540282
Sophie_Treadwell,1885,,1,1,1,?,0.05448825167540282
John_L._Lewis,1880,,1,1,1,?,0.05448825167540282
Lascelles_Abercrombie,1881,,1,1,1,?,0.05448825167540282
Eric_Coates,1886,,1,1,1,?,0.05448825167540282
Will_Cuppy,1884,,1,1,1,?,0.05448825167540282
Josiah_Stamp,1880,,1,1,1,?,0.05448825167540282
Walther_Wever_(general),1887,,1,1,1,?,0.05448825167540282
Vicki_Baum,1888,,1,1,1,?,0.05448825167540282
Sir_Richard_O'Connor,1889,,1,1,1,?,0.05448825167540282
Nevile_Henderson,1882,,1,1,1,?,0.05448825167540282
George_S._Kaufman,1889,,1,1,1,?,0.05448825167540282
Anton_Flettner,1885,,1,1,1,?,0.05448825167540282
Zack_Wheat,1888,,1,1,1,?,0.05448825167540282
Douglass_Dumbrille,1889,,1,1,1,?,0.05448825167540282
Lincoln_Beachey,1887,,1,1,1,?,0.05448825167540282
Walter_Knott,1889,,1,1,1,?,0.05448825167540282
Susan_Sutherland_Isaacs,1885,,1,1,1,?,0.05448825167540282
Nick_LaRocca,1889,,1,1,1,?,0.05448825167540282
Burt_Mustin,1884,,1,1,1,?,0.05448825167540282
Edward_Bach,1886,,1,1,1,?,0.05448825167540282
"George_""Gabby""_Hayes",1885,,1,1,1,?,0.05448825167540282
Waite_Phillips,1883,,1,1,1,?,0.05448825167540282
William_Joseph_Simmons,1880,,1,1,1,?,0.05448825167540282
Grace_Brown,1886,,1,1,1,?,0.05448825167540282
Syed_Sulaiman_Nadvi,1884,,1,1,1,?,0.05448825167540282
Louis_Wolheim,1880,,1,1,1,?,0.05448825167540282
Olaf_M._Hustvedt,1886,,1,1,1,?,0.05448825167540282
Margaret_Caroline_Anderson,1886,,1,1,1,?,0.05448825167540282
Arthur_S._Carpender,1884,,1,1,1,?,0.05448825167540282
Kermit_Roosevelt,1889,,1,1,1,?,0.05448825167540282
Otto_Plath,1885,,1,1,1,?,0.05448825167540282
Lew_Cody,1884,,1,1,1,?,0.05448825167540282
Valeska_Suratt,1882,,1,1,1,?,0.05448825167540282
Enoch_L._Johnson,1883,,1,1,1,?,0.05448825167540282
Ed_Wynn,1886,,1,1,1,?,0.05448825167540282
Eric_Gill,1882,,1,1,1,?,0.05448825167540282
Henry_Fillmore,1881,,1,1,1,?,0.05448825167540282
Chico_Marx,1887,,1,1,1,?,0.05448825167540282
Dick_Elliott,1886,,1,1,1,?,0.05448825167540282
Edgar_J._Kaufmann,1885,,1,1,1,?,0.05448825167540282
Robert_Esnault-Pelterie,1881,,1,1,1,?,0.05448825167540282
Damon_Runyon,1880,,1,1,1,?,0.05448825167540282
George_Jean_Nathan,1882,,1,1,1,?,0.05448825167540282
Eva_Morris,1885,,1,1,1,?,0.05448825167540282
Oliver_Wallace,1887,,1,1,1,?,0.05448825167540282
"Arthur_Schlesinger,_Sr.",1888,,1,1,1,?,0.05448825167540282
Matt_Moore_(actor),1888,,1,1,1,?,0.05448825167540282
Roderick_McMahon,1882,,1,1,1,?,0.05448825167540282
Antoinette_Perry,1888,,1,1,1,?,0.05448825167540282
Grover_Cleveland_Alexander,1887,,1,1,1,?,0.05448825167540282
Ralph_DePalma,1884,,1,1,1,?,0.05448825167540282
Hugh_Dowding,1882,,1,1,1,?,0.05448825167540282
Bror_von_Blixen-Finecke,1886,,1,1,1,?,0.05448825167540282
Harry_H._Laughlin,1880,,1,1,1,?,0.05448825167540282
Squizzy_Taylor,1888,,1,1,1,?,0.05448825167540282
John_Foulds,1880,,1,1,1,?,0.05448825167540282
Harvey_Spencer_Lewis,1883,,1,1,1,?,0.05448825167540282
Lothrop_Stoddard,1883,,1,1,1,?,0.05448825167540282
Eddie_Collins,1887,,1,1,1,?,0.05448825167540282
Walter_Terence_Stace,1886,,1,1,1,?,0.05448825167540282
Giles_Gilbert_Scott,1880,,1,1,1,?,0.05448825167540282
Charles_White_Whittlesey,1884,,1,1,1,?,0.05448825167540282
Francesco_Baracca,1888,,1,1,1,?,0.05448825167540282
Vernon_Castle,1887,,1,1,1,?,0.05448825167540282
Bradbury_Robinson,1884,,1,1,1,?,0.05448825167540282
Moroni_Olsen,1889,,1,1,1,?,0.05448825167540282
"Simon_Bolivar_Buckner,_Jr.",1886,,1,1,1,?,0.05448825167540282
Clive_Bell,1881,,1,1,1,?,0.05448825167540282
Stanley_Forman_Reed,1884,,1,1,1,?,0.05448825167540282
List_of_Dutch_supercentenarians#Geertje_Roelinga-de_Groot,1887,,1,1,1,?,0.05448825167540282
List_of_Dutch_supercentenarians#Ann_Jemimia_Flower,1885,,1,1,1,?,0.05448825167540282
Hubert_Harrison,1883,,1,1,1,?,0.05448825167540282
Harry_Ricardo,1885,,1,1,1,?,0.05448825167540282
Inez_Milholland,1886,,1,1,1,?,0.05448825167540282
José_Abad_Santos,1886,,1,1,1,?,0.05448825167540282
Malcolm_Campbell,1885,,1,1,1,?,0.05448825167540282
Jean_Patou,1880,,1,1,1,?,0.05448825167540282
Thomas_Sopwith,1888,,1,1,1,?,0.05448825167540282
Noah_Beery,1882,,1,1,1,?,0.05448825167540282
Richmond_K._Turner,1885,,1,1,1,?,0.05448825167540282
Martin_and_Osa_Johnson,1884,,1,1,1,?,0.05448825167540282
Francis_X._Bushman,1883,,1,1,1,?,0.05448825167540282
Harold_Hitz_Burton,1888,,1,1,1,?,0.05448825167540282
Thomas_Selfridge,1882,,1,1,1,?,0.05448825167540282
Roger_Nash_Baldwin,1884,,1,1,1,?,0.05448825167540282
Henry_F._Phillips,1889,,1,1,1,?,0.05448825167540282
Dally_Messenger,1883,,1,1,1,?,0.05448825167540282
Laurette_Taylor,1883,,1,1,1,?,0.05448825167540282
Syedna_Taher_Saifuddin,1888,,1,1,1,?,0.05448825167540282
Hubert_Latham,1883,,1,1,1,?,0.05448825167540282
Aurora_Quezon,1888,,1,1,1,?,0.05448825167540282
Edgar_Guest,1881,,1,1,1,?,0.05448825167540282
E._J._Pratt,1882,,1,1,1,?,0.05448825167540282
Xul_Solar,1887,,1,1,1,?,0.05448825167540282
Texas_Guinan,1884,,1,1,1,?,0.05448825167540282
J._Frank_Dobie,1888,,1,1,1,?,0.05448825167540282
Harry_Hooper,1887,,1,1,1,?,0.05448825167540282
John_Alexander_Douglas_McCurdy,1886,,1,1,1,?,0.05448825167540282
Cyril_Burt,1883,,1,1,1,?,0.05448825167540282
Grantland_Rice,1880,,1,1,1,?,0.05448825167540282
Raoul_Lufbery,1885,,1,1,1,?,0.05448825167540282
John_Cunningham_(Royal_Navy_officer),1885,,1,1,1,?,0.05448825167540282
James_E._Casey,1888,,1,1,1,?,0.05448825167540282
Daniel_Jones_(phonetician),1881,,1,1,1,?,0.05448825167540282
Christabel_Pankhurst,1880,,1,1,1,?,0.05448825167540282
Troy_H._Middleton,1889,,1,1,1,?,0.05448825167540282
Andrew_Higgins,1886,,1,1,1,?,0.05448825167540282
Olave_Baden-Powell,1889,,1,1,1,?,0.05448825167540282
Isaac_C._Kidd,1884,,1,1,1,?,0.05448825167540282
Neville_Cardus,1888,,1,1,1,?,0.05448825167540282
Elsa_Maxwell,1883,,1,1,1,?,0.05448825167540282
John_Cyril_Porte,1884,,1,1,1,?,0.05448825167540282
John_Flynn_(minister),1880,,1,1,1,?,0.05448825167540282
Mary_Webb,1881,,1,1,1,?,0.05448825167540282
"Terry_de_la_Mesa_Allen,_Sr.",1888,,1,1,1,?,0.05448825167540282
Jack_Holt_(actor),1888,,1,1,1,?,0.05448825167540282
W._O._Bentley,1888,,1,1,1,?,0.05448825167540282
"Bob_Jones,_Sr.",1883,,1,1,1,?,0.05448825167540282
Robert_L._Ghormley,1883,,1,1,1,?,0.05448825167540282
Ulysses_S._Grant_III,1881,,1,1,1,?,0.05448825167540282
Harry_Ferguson,1884,,1,1,1,?,0.05448825167540282
Florence_La_Badie,1888,,1,1,1,?,0.05448825167540282
Willis_O'Brien,1886,,1,1,1,?,0.05448825167540282
Sam_Crawford,1880,,1,1,1,?,0.05448825167540282
Sigmund_Romberg,1887,,1,1,1,?,0.05448825167540282
Charles_Nordhoff,1887,,1,1,1,?,0.05448825167540282
Rupert_Downes,1885,,1,1,1,?,0.05448825167540282
Henry_Kent_Hewitt,1887,,1,1,1,?,0.05448825167540282
Wyndham_Standing,1880,,1,1,1,?,0.05448825167540282
Charles_Alan_Pownall,1887,,1,1,1,?,0.05448825167540282
Fritz_Pfleumer,1881,,1,1,1,?,0.05448825167540282
Kenneth_Whiting,1881,,1,1,1,?,0.05448825167540282
Robert_Henry_English,1888,,1,1,1,?,0.05448825167540282
Jean_Decoux,1884,,1,1,1,?,0.05448825167540282
Theodore_Roosevelt_Jr.,1887,,1,1,1,?,0.05448825167540282
Bee_Ho_Gray,1885,,1,1,1,?,0.05448825167540282
Jeanne_de_Salzmann,1889,,1,1,1,?,0.05448825167540282
Dorothy_Payne_Whitney,1887,,1,1,1,?,0.05448825167540282
William_Edmunds_(actor),1886,,1,1,1,?,0.05448825167540282
Martin_O'Meara,1882,,1,1,1,?,0.05448825167540282
Albert_Plesman,1889,,1,1,1,?,0.05448825167540282
Sheila_Kaye-Smith,1887,,1,1,1,?,0.05448825167540282
George_A._Malcolm,1881,,1,1,1,?,0.05448825167540282
Subramania_Bharati,1882,,1,1,1,?,0.05448825167540282
"Walter_Citrine,_1st_Baron_Citrine",1887,,1,1,1,?,0.05448825167540282
George_S._Rentz,1882,,1,1,1,?,0.05448825167540282
Tich_Freeman,1888,,1,1,1,?,0.05448825167540282
Maurice_Nicoll,1884,,1,1,1,?,0.05448825167540282
Phil_Mead,1887,,1,1,1,?,0.05448825167540282
Morton_Deyo,1887,,1,1,1,?,0.05448825167540282
Henri_Dentz,1881,,1,1,1,?,0.05448825167540282
Leonard_Mudie,1883,,1,1,1,?,0.05448825167540282
Bess_Streeter_Aldrich,1881,,1,1,1,?,0.05448825167540282
Nell_Brinkley,1886,,1,1,1,?,0.05448825167540282
Al_Christie,1881,,1,1,1,?,0.05448825167540282
Lotte_Herrlich,1883,,1,1,1,?,0.05448825167540282
Duffy_Lewis,1888,,1,1,1,?,0.05448825167540282
Herbert_Silberer,1882,,1,1,1,?,0.05448825167540282
Venkatarama_Ramalingam_Pillai,1888,,1,1,1,?,0.05448825167540282
Grover_Whalen,1886,,1,1,1,?,0.05448825167540282
William_Barnard_Rhodes-Moorhouse,1887,,1,1,1,?,0.05448825167540282
Huntley_Gordon,1887,,1,1,1,?,0.05448825167540282
Madame_de_Meuron,1882,,1,1,1,?,0.05448825167540282
David_Powell_(actor),1883,,1,1,1,?,0.05448825167540282
Carlo_Bergamini_(admiral),1888,,1,1,1,?,0.05448825167540282
Eleonore_Baur,1885,,1,1,1,?,0.05448825167540282
Jean_Alexandre_Barré,1880,,1,1,1,?,0.05448825167540282
Elmer_Fowler_Stone,1887,,1,1,1,?,0.05448825167540282
Forrest_Taylor,1883,,1,1,1,?,0.05448825167540282
Harold_Geiger,1884,,1,1,1,?,0.05448825167540282
Royal_E._Ingersoll,1883,,1,1,1,?,0.05448825167540282
John_Murray_Anderson,1886,,1,1,1,?,0.05448825167540282
Robert_Moses,1888,,1,1,1,?,0.05448825167540282
Papa_Celestin,1884,,1,1,1,?,0.05448825167540282
Waldemar_Bonsels,1880,,1,1,1,?,0.05448825167540282
Monte_Attell,1885,,1,1,1,?,0.05448825167540282
Adelina_Domingues,1888,,1,1,1,?,0.05448825167540282
Margaret_Ayer_Barnes,1886,,1,1,1,?,0.05448825167540282
Reginald_Farrer,1880,,1,1,1,?,0.05448825167540282
Julia_Sanderson,1887,,1,1,1,?,0.05448825167540282
Esteban_Terradas_i_Illa,1883,,1,1,1,?,0.05448825167540282
Henry_Norwest,1884,,1,1,1,?,0.05448825167540282
Arthur_E._Andersen,1885,,1,1,1,?,0.05448825167540282
Edward_Sheldon,1886,,1,1,1,?,0.05448825167540282
Virginia_Pearson,1886,,1,1,1,?,0.05448825167540282
Ola_Raknes,1887,,1,1,1,?,0.05448825167540282
Charles_Tomlinson_Griffes,1884,,1,1,1,?,0.05448825167540282
André_François-Poncet,1887,,1,1,1,?,0.05448825167540282
Husain_Salaahuddin,1881,,1,1,1,?,0.05448825167540282
Michael_Fekete,1886,,1,1,1,?,0.05448825167540282
Lester_Cuneo,1888,,1,1,1,?,0.05448825167540282
Gisela_Richter,1882,,1,1,1,?,0.05448825167540282
Knute_Rockne,1888,,1,1,1,?,0.05448825167540282
Eulalio_Gutiérrez,1881,,1,1,1,?,0.05448825167540282
Peter_Stoner,1888,,1,1,1,?,0.05448825167540282
Hong_Yi,1880,,1,1,1,?,0.05448825167540282
Lilias_Armstrong,1882,,1,1,1,?,0.05448825167540282
Luo_Meizhen,1885,,1,1,1,?,0.05448825167540282
Harold_Saxton_Burr,1889,,1,1,1,?,0.05448825167540282
Belle_da_Costa_Greene,1883,,1,1,1,?,0.05448825167540282
John_Painter_(supercentenarian),1888,,1,1,1,?,0.05448825167540282
Claud_Allister,1888,,1,1,1,?,0.05448825167540282
Marjorie_Newell_Robb,1889,,1,1,1,?,0.05448825167540282
Alcide_Nunez,1884,,1,1,1,?,0.05448825167540282
Evadne_Price,1888,,1,1,1,?,0.05448825167540282
Elsa_Brändström,1888,,1,1,1,?,0.05448825167540282
Jack_Hoxie,1885,,1,1,1,?,0.05448825167540282
William_S._Pye,1880,,1,1,1,?,0.05448825167540282
Christy_Mathewson,1880,,1,1,1,?,0.05448825167540282
Elsie_J._Oxenham,1880,,1,1,1,?,0.05448825167540282
Herman_Bing,1889,,1,1,1,?,0.05448825167540282
Rose_Wilder_Lane,1886,,1,1,1,?,0.05448825167540282
Frank_Nitti,1886,,1,1,1,?,0.05448825167540282
Oren_E._Long,1889,,1,1,1,?,0.05448825167540282
Felix_Frankfurter,1882,,1,1,1,?,0.05448825167540282
Garfield_Wood,1880,,1,1,1,?,0.05448825167540282
Kamato_Hongo,1887,,1,1,1,?,0.05448825167540282
Jorge_Chávez,1887,,1,1,1,?,0.05448825167540282
Mary_MacLane,1881,,1,1,1,?,0.05448825167540282
Paul_Popenoe,1888,,1,1,1,?,0.05448825167540282
Florence_Turner,1885,,1,1,1,?,0.05448825167540282
Maude_Farris-Luse,1887,,1,1,1,?,0.05448825167540282
Frederick_Handley_Page,1885,,1,1,1,?,0.05448825167540282
Elsie_Ferguson,1883,,1,1,1,?,0.05448825167540282
Milton_Sills,1882,,1,1,1,?,0.05448825167540282
Sam_Rayburn,1882,,1,1,1,?,0.05448825167540282
Isabel_Randolph,1889,,1,1,1,?,0.05448825167540282
Marie_Brémont,1886,,1,1,1,?,0.05448825167540282
Jack_Hobbs,1882,,1,1,1,?,0.05448825167540282
Homer_S._Ferguson,1889,,1,1,1,?,0.05448825167540282
Florence_Reed,1883,,1,1,1,?,0.05448825167540282
Zhou_Zuoren,1885,,1,1,1,?,0.05448825167540282
Thomas_Sigismund_Stribling,1881,,1,1,1,?,0.05448825167540282
Percy_Marmont,1883,,1,1,1,?,0.05448825167540282
Leo_Geyr_von_Schweppenburg,1886,,1,1,1,?,0.05448825167540282
Chujiro_Hayashi,1880,,1,1,1,?,0.05448825167540282
Giuseppe_Mario_Bellanca,1886,,1,1,1,?,0.05448825167540282
Daniel_E._Barbey,1889,,1,1,1,?,0.05448825167540282
Hiroaki_Abe,1889,,1,1,1,?,0.05448825167540282
Elizabeth_Craig_(writer),1883,,1,1,1,?,0.05448825167540282
Joseph_Egger,1889,,1,1,1,?,0.05448825167540282
Sam_McDaniel,1886,,1,1,1,?,0.05448825167540282
Kathleen_Howard,1884,,1,1,1,?,0.05448825167540282
Florence_Easton,1882,,1,1,1,?,0.05448825167540282
Julian_C._Smith,1885,,1,1,1,?,0.05448825167540282
Pier_Ruggero_Piccio,1880,,1,1,1,?,0.05448825167540282
C._K._Scott-Moncrieff,1889,,1,1,1,?,0.05448825167540282
Thomas_J._Moore,1883,,1,1,1,?,0.05448825167540282
Catherine_Bramwell-Booth,1883,,1,1,1,?,0.05448825167540282
Hidetsugu_Yagi,1886,,1,1,1,?,0.05448825167540282
Aubrey_Fitch,1883,,1,1,1,?,0.05448825167540282
Alfred_A._Cunningham,1882,,1,1,1,?,0.05448825167540282
Ilo_Wallace,1888,,1,1,1,?,0.05448825167540282
Hans_Moser_(actor),1880,,1,1,1,?,0.05448825167540282
DeWitt_Wallace,1889,,1,1,1,?,0.05448825167540282
Walter_Baldwin,1889,,1,1,1,?,0.05448825167540282
Mokichi_Okada,1882,,1,1,1,?,0.05448825167540282
Eddie_Collins_(actor),1883,,1,1,1,?,0.05448825167540282
Tony_Jannus,1889,,1,1,1,?,0.05448825167540282
Luiza_Zavloschi,1883,,1,1,1,?,0.05448825167540282
